
units           real
boundary p p p
atom_style      full

read_restart final_state_Relax_Es_5kT_Ens_05kT.restart
WARNING: Restart file used different # of processors (../read_restart.cpp:740)
  restoring atom style full from restart
  orthogonal box = (-250 -250 -250) to (250 250 250)
  1 by 2 by 5 MPI processor grid
  restoring pair style lj/cut from restart
  restoring bond style harmonic from restart
  restoring angle style cosine from restart
  5000 atoms
  5295 bonds
  4600 angles
  3 = max # of 1-2 neighbors
  4 = max # of 1-3 neighbors
  8 = max # of 1-4 neighbors
  16 = max # of special neighbors
  special bonds CPU = 0.0120789 secs
  read_restart CPU = 0.118155 secs

neighbor 1.9 bin
neigh_modify every 1 delay 1 check yes

angle_style  cosine
angle_coeff   *  2  # K (energy unit)

bond_style      harmonic
# bond-type, K (energy/distance^2), R0 (distance)
bond_coeff   1   3   10
bond_coeff   2   3   10
bond_coeff   3   3   11.22

pair_style lj/cut 25
# atom-typ1, atom-typ2, energy-well, sigma (bead-diameter), cut-off (distance)
pair_coeff  * * 0.3 10 25

special_bonds lj  1 1 1 angle no

variable t equal step
variable steps equal 100000000
variable dt_thermo equal 1000000
variable dt_movie equal 1000000
variable dt_data equal 10000000

group rxnSites type 1 3
1000 atoms in group rxnSites

# fix ID group-ID(atom-types) bond/create Nevery itype jtype Rmin bondtype (prob values = fraction seed) (iparam maxbond newType)
fix bondc rxnSites bond/create/random 20 1 3 12.72 3 prob 1 ${seed} iparam 1 1 jparam 1 3
fix bondc rxnSites bond/create/random 20 1 3 12.72 3 prob 1 676234 iparam 1 1 jparam 1 3

# fix ID group-ID bond/break Nevery bondtype Rmax keyword values ...
fix bondbr rxnSites bond/break 20 3 12.72 prob 1 ${seed}
fix bondbr rxnSites bond/break 20 3 12.72 prob 1 676234

variable frmbnd equal f_bondc[2]
variable brkbnd equal f_bondbr[2]
fix saveBond all print ${dt_thermo} "$t ${frmbnd} ${brkbnd}" file BondData_${fName}.dat screen no
fix saveBond all print 1000000 "$t ${frmbnd} ${brkbnd}" file BondData_${fName}.dat screen no
fix saveBond all print 1000000 "$t ${frmbnd} ${brkbnd}" file BondData_Run2_Relax_Es_5kT_Ens_05kT_input.dat screen no

thermo_style    custom step epair pe ke ebond eangle temp bonds
thermo          ${dt_thermo}
thermo          1000000
fix saveThermo all print ${dt_thermo} "$t $(temp) $(ke) $(pe) $(epair) $(ebond) $(eangle) $(bonds)" file Thermo_${fName}.dat title "# Steps Temp KinEng PotEng Epair Ebond Eangle Bonds" screen no
fix saveThermo all print 1000000 "$t $(temp) $(ke) $(pe) $(epair) $(ebond) $(eangle) $(bonds)" file Thermo_${fName}.dat title "# Steps Temp KinEng PotEng Epair Ebond Eangle Bonds" screen no
fix saveThermo all print 1000000 "$t $(temp) $(ke) $(pe) $(epair) $(ebond) $(eangle) $(bonds)" file Thermo_Run2_Relax_Es_5kT_Ens_05kT_input.dat title "# Steps Temp KinEng PotEng Epair Ebond Eangle Bonds" screen no

############################ Langevin Dynamics ###############################
fix fxlan all langevin $T $T 500 ${seed}
fix fxlan all langevin 310 $T 500 ${seed}
fix fxlan all langevin 310 310 500 ${seed}
fix fxlan all langevin 310 310 500 676234
fix fxnve all nve

comm_style tiled
fix fxbal all balance 1000 1.1 rcb # load balance for spatially heterogeneous system

timestep 25

restart ${dt_data} ${fName}_tp_*.restart
restart 10000000 ${fName}_tp_*.restart
restart 10000000 Run2_Relax_Es_5kT_Ens_05kT_input_tp_*.restart
dump coor all custom ${dt_movie} traj_${fName}.dump id type mol mass x y z xu yu zu
dump coor all custom 1000000 traj_${fName}.dump id type mol mass x y z xu yu zu
dump coor all custom 1000000 traj_Run2_Relax_Es_5kT_Ens_05kT_input.dump id type mol mass x y z xu yu zu

run ${steps}
run 100000000
Neighbor list info ...
  update every 1 steps, delay 1 steps, check yes
  max neighbors/atom: 2000, page size: 100000
  master list distance cutoff = 26.9
  ghost atom cutoff = 26.9
  binsize = 13.45, bins = 38 38 38
  2 neighbor lists, perpetual/occasional/extra = 1 1 0
  (1) pair lj/cut, perpetual
      attributes: half, newton on
      pair build: half/bin/newton
      stencil: half/bin/3d/newton
      bin: standard
  (2) fix bond/create/random, occasional, copy from (1)
      attributes: half, newton on
      pair build: copy
      stencil: none
      bin: none
WARNING: Inconsistent image flags (../domain.cpp:784)
Per MPI rank memory allocation (min/avg/max) = 10.27 | 10.55 | 11.2 Mbytes
Step E_pair PotEng KinEng E_bond E_angle Temp Bonds 
300000000   -3871.1467    520.89237    4604.6364    1601.0349    2791.0041    309.01382     5295 
301000000   -3957.6662    410.10278    4571.7133     1531.631     2836.138    306.80438     5295 
302000000   -3791.0053    576.45996    4627.7779    1501.6386    2865.8267    310.56683     5296 
303000000   -3814.3689    617.93605    4632.2884    1526.4597    2905.8452    310.86953     5296 
304000000   -3921.6863    494.09236    4604.7006    1537.5966    2878.1821    309.01813     5297 
305000000   -3906.9321    555.26397    4667.7536    1557.5775    2904.6186    313.24957     5297 
306000000   -3852.5922    546.50245    4626.7654    1554.1529    2844.9417    310.49888     5297 
307000000   -3833.8412    755.18266    4674.9705    1594.4891    2994.5348    313.73389     5297 
308000000   -3859.0764    599.39557    4627.2129     1543.774     2914.698    310.52891     5297 
309000000   -3820.5788    566.36945     4556.901    1511.4008    2875.5475    305.81033     5297 
310000000   -3926.2995    522.22931    4601.5929    1559.8854    2888.6433    308.80958     5297 
311000000   -3853.7568    605.07352    4607.0124    1547.5477    2911.2827    309.17327     5296 
312000000   -3835.3873    578.87083    4632.9076    1548.6445    2865.6136    310.91108     5294 
313000000   -3768.7589    604.75764    4614.8209    1544.7691    2828.7474    309.69729     5294 
314000000   -3724.3298    658.41361    4555.7964    1596.1031    2786.6403     305.7362     5294 
315000000   -3748.1713    626.41174    4653.9663    1524.8138    2849.7693    312.32431     5295 
316000000    -3808.287    690.70014    4687.3821    1602.0147    2896.9724    314.56682     5294 
317000000   -3832.6265    736.96527     4630.135    1639.3906    2930.2012    310.72501     5295 
318000000    -3846.346    608.47003    4591.2957    1577.1954    2877.6206    308.11854     5295 
319000000   -3816.8503    605.83543    4631.2791    1605.1122    2817.5736     310.8018     5295 
320000000   -3773.6179    647.89254    4571.5132     1525.459    2896.0514    306.79095     5294 
321000000   -3849.8269    498.64245    4649.3842    1531.6281    2816.8413    312.01681     5295 
322000000   -3827.7767    629.52993    4581.5011    1582.0036     2875.303    307.46123     5295 
323000000   -3884.6978    603.72492    4705.1092    1601.3278    2887.0949    315.75648     5296 
324000000   -3894.5148     619.9296    4630.8991    1588.9087    2925.5357    310.77629     5296 
325000000   -3889.4882    573.07038    4741.7196    1577.1194    2885.4392    318.21338     5296 
326000000   -3874.1497    617.75787    4714.1863    1576.2677    2915.6399    316.36564     5296 
327000000   -3794.2939    663.58345    4665.7718    1636.8836    2820.9938    313.11657     5296 
328000000   -3894.8588    635.85506     4522.013    1622.3198     2908.394    303.46903     5296 
329000000   -3819.0948    580.08175    4576.7857    1583.3851    2815.7915    307.14478     5296 
330000000   -3809.7707    628.87272    4610.0982    1600.5469    2838.0965    309.38036     5296 
331000000   -3908.4768    605.11503    4601.4556    1560.1909    2953.4009    308.80036     5296 
332000000   -3795.9383     670.1518    4701.0048    1596.0671     2870.023    315.48103     5296 
333000000   -3796.6147    650.17388    4542.1717    1563.3646     2883.424    304.82186     5296 
334000000   -3770.0121    625.74442    4605.6831    1565.7428    2830.0137    309.08406     5296 
335000000   -3767.2458    687.48857    4528.0531    1549.1541    2905.5803    303.87437     5296 
336000000   -3844.4339    579.20795    4609.3436    1597.8578     2825.784    309.32972     5296 
337000000   -3862.5137    623.73872    4611.2745    1628.3606    2857.8918     309.4593     5296 
338000000   -3876.8905    594.32272    4769.6189    1553.2533      2917.96    320.08568     5296 
339000000   -3836.7049    688.06284    4619.9423    1632.9338    2891.8339    310.04099     5296 
340000000   -3727.1055    703.41931    4645.7315    1594.6407    2835.8841    311.77168     5296 
341000000   -3941.6716    564.87017    4636.2202    1575.9479    2930.5938    311.13339     5296 
342000000   -3817.7491    629.80581    4647.4686    1568.3489     2879.206    311.88826     5295 
343000000   -3860.6539    592.10753    4577.3158    1588.8546    2863.9069    307.18035     5295 
344000000   -3831.0797    639.70052    4574.4182    1588.4592     2882.321     306.9859     5295 
345000000   -3926.0925    517.53023    4585.8332    1554.9361    2888.6866    307.75195     5295 
346000000   -3922.7322    464.73765    4645.8524      1546.37    2841.0999    311.77979     5295 
347000000   -3894.5314    580.21469    4626.0582     1590.289    2884.4571    310.45142     5294 
348000000   -3952.0002    442.37309    4607.8292    1533.5182    2860.8551    309.22809     5293 
349000000   -3844.6274    518.94663     4642.126    1549.5407    2814.0333    311.52972     5293 
350000000   -3932.6817    500.05068    4739.7551    1530.2909    2902.4415    318.08154     5293 
351000000   -3900.1562    533.60029    4496.0429    1585.0926    2848.6639    301.72619     5293 
352000000   -3855.9914    556.66723    4617.0394    1583.2181    2829.4405    309.84618     5293 
353000000   -3848.2238    526.06271    4626.1005    1581.2766    2793.0099    310.45426     5293 
354000000   -3961.8207    445.80462    4579.1487    1556.4769    2851.1484    307.30336     5293 
355000000   -3904.7151    523.78038    4693.9873     1575.349    2853.1464     315.0101     5294 
356000000   -3941.2719    567.91408    4687.7836    1599.5894    2909.5966    314.59377     5294 
357000000     -3828.99    534.53793    4639.6262    1514.2119     2849.316    311.36196     5294 
358000000   -3880.4995    466.25661     4556.473    1521.0459    2825.7102    305.78161     5293 
359000000   -3884.7949    536.13359    4625.3972    1548.2393    2872.6892    310.40706     5294 
360000000   -3820.1625    545.45256    4515.8904    1486.9246    2878.6905    303.05814     5294 
361000000   -3848.5439    576.53737    4726.8518    1542.9271    2882.1542    317.21561     5293 
362000000   -3928.6703    558.48216    4656.7794    1611.8076    2875.3449     312.5131     5294 
363000000   -3839.4412    647.89693    4686.6844    1609.0851     2878.253       314.52     5295 
364000000   -3889.7619    458.39376    4612.5638    1502.9365    2845.2191    309.54582     5295 
365000000   -3842.5974    541.08513    4658.8481    1519.4861    2864.1965    312.65193     5294 
366000000   -3833.0507    600.75808    4610.2337    1543.7099    2890.0989    309.38945     5295 
367000000   -3854.5732    585.08972    4538.6223    1562.6105    2877.0523    304.58366     5295 
368000000   -3832.3202    570.96566    4631.1738    1545.5557    2857.7302    310.79473     5294 
369000000   -3782.9173    671.76583    4681.2741    1595.3814    2859.3017    314.15692     5295 
370000000   -3871.1259    534.81124    4659.8222    1530.1302    2875.8069     312.7173     5295 
371000000   -3889.8006    551.15686    4673.5733     1562.371    2878.5865    313.64013     5295 
372000000   -3882.7574    615.44352    4516.3312    1581.5015    2916.6994    303.08773     5296 
373000000   -3821.1591    647.96661    4647.8823    1598.6148    2870.5109    311.91602     5296 
374000000   -3969.3962     509.9471    4640.8028    1627.4209    2851.9224    311.44092     5296 
375000000    -3844.634    609.83798    4570.9391    1550.9582    2903.5138    306.75242     5296 
376000000   -3802.6876    591.20906    4606.4984    1505.9432    2887.9535    309.13878     5296 
377000000   -3856.1607    533.10732    4628.2646    1554.3434    2834.9246    310.59949     5296 
378000000   -3931.7653    553.15026    4646.5039    1555.9931    2928.9225    311.82352     5296 
379000000   -3777.9897     549.7928    4625.2983    1538.4734    2789.3091    310.40043     5296 
380000000   -3813.8606     612.6498    4618.0543     1630.726    2795.7844    309.91429     5295 
381000000   -3927.7095    434.52356     4639.312    1553.1092    2809.1239    311.34087     5295 
382000000   -3880.5635    465.42307    4575.7214     1507.037    2838.9495    307.07335     5296 
383000000    -3900.314    498.72249    4548.4464    1558.9016    2840.1349    305.24295     5296 
384000000   -3940.6576    467.67803    4589.5086    1577.0648    2831.2708    307.99861     5295 
385000000   -3806.7339    658.02791    4563.3476    1573.2754    2891.4865    306.24296     5296 
386000000   -3831.1037    503.18071    4740.6023    1563.1059    2771.1785    318.13839     5296 
387000000    -3820.905    586.22526    4659.5977    1551.3926    2855.7376    312.70223     5296 
388000000   -3731.3496     650.7033    4610.3167     1549.272    2832.7809    309.39502     5296 
389000000    -3776.468    660.18939    4575.7593     1579.094    2857.5635     307.0759     5296 
390000000   -3839.6948    531.16573    4693.3626    1547.1309    2823.7297    314.96817     5296 
391000000   -3904.8012    595.96882    4662.3611    1581.4588    2919.3113    312.88769     5296 
392000000   -3866.2688    673.53839    4523.8677    1591.7938    2948.0133    303.59349     5296 
393000000   -3864.5185    503.09443    4560.9739     1533.525    2834.0879    306.08366     5296 
394000000   -3827.4674    618.78708    4599.5165     1591.919    2854.3355    308.67023     5296 
395000000   -3812.8799    610.41486    4603.3711    1539.5569    2883.7379    308.92891     5296 
396000000   -3775.8992    688.63739    4637.8271    1579.5403    2884.9963    311.24122     5296 
397000000   -3785.7858    656.54018    4624.2749    1589.8329    2852.4931    310.33175     5296 
398000000   -3890.8503    551.84579    4560.1775    1574.9847    2867.7114    306.03021     5296 
399000000   -3851.5523    627.61255    4618.6029     1577.867    2901.2978     309.9511     5296 
400000000    -3863.522    625.51352    4588.0573    1561.4295    2927.6061    307.90121     5295 
Loop time of 26888.1 on 10 procs for 100000000 steps with 5000 atoms

Performance: 8033.282 ns/day, 0.003 hours/ns, 3719.112 timesteps/s
99.6% CPU use with 10 MPI tasks x no OpenMP threads

MPI task timing breakdown:
Section |  min time  |  avg time  |  max time  |%varavg| %total
---------------------------------------------------------------
Pair    | 9206.3     | 10533      | 11744      | 667.0 | 39.17
Bond    | 1575.2     | 1607.7     | 1637.5     |  43.4 |  5.98
Neigh   | 3553.7     | 3572.7     | 3591.5     |  21.3 | 13.29
Comm    | 5321.4     | 6595.9     | 8321.7     |1014.9 | 24.53
Output  | 0.62215    | 0.62296    | 0.62312    |   0.0 |  0.00
Modify  | 3648.6     | 3692.5     | 3769.3     |  50.1 | 13.73
Other   |            | 885.9      |            |       |  3.29

Nlocal:    500 ave 525 max 462 min
Histogram: 1 0 0 1 1 3 0 1 2 1
Nghost:    738 ave 936 max 628 min
Histogram: 2 2 2 2 0 0 0 0 0 2
Neighs:    10138.8 ave 11989 max 8750 min
Histogram: 1 3 0 0 3 0 0 1 1 1

Total # of neighbors = 101388
Ave neighs/atom = 20.2776
Ave special neighs/atom = 7.4936
Neighbor list builds = 5030586
Dangerous builds = 0
write_restart final_state_${fName}.restart
write_restart final_state_Run2_Relax_Es_5kT_Ens_05kT_input.restart
Total wall time: 7:28:08
