
units           real
boundary p p p
atom_style      full

read_restart final_state_Relax_Es_5kT_Ens_05kT.restart
WARNING: Restart file used different # of processors (../read_restart.cpp:740)
  restoring atom style full from restart
  orthogonal box = (-250 -250 -250) to (250 250 250)
  1 by 2 by 5 MPI processor grid
  restoring pair style lj/cut from restart
  restoring bond style harmonic from restart
  restoring angle style cosine from restart
  5000 atoms
  5295 bonds
  4600 angles
  3 = max # of 1-2 neighbors
  4 = max # of 1-3 neighbors
  8 = max # of 1-4 neighbors
  16 = max # of special neighbors
  special bonds CPU = 0.00997908 secs
  read_restart CPU = 0.176683 secs

neighbor 1.9 bin
neigh_modify every 1 delay 1 check yes

angle_style  cosine
angle_coeff   *  2  # K (energy unit)

bond_style      harmonic
# bond-type, K (energy/distance^2), R0 (distance)
bond_coeff   1   3   10
bond_coeff   2   3   10
bond_coeff   3   3   11.22

pair_style lj/cut 25
# atom-typ1, atom-typ2, energy-well, sigma (bead-diameter), cut-off (distance)
pair_coeff  * * 0.3 10 25

special_bonds lj  1 1 1 angle no

variable t equal step
variable steps equal 100000000
variable dt_thermo equal 1000000
variable dt_movie equal 1000000
variable dt_data equal 10000000

group rxnSites type 1 3
1000 atoms in group rxnSites

# fix ID group-ID(atom-types) bond/create Nevery itype jtype Rmin bondtype (prob values = fraction seed) (iparam maxbond newType)
fix bondc rxnSites bond/create/random 20 1 3 12.72 3 prob 1 ${seed} iparam 1 1 jparam 1 3
fix bondc rxnSites bond/create/random 20 1 3 12.72 3 prob 1 364747 iparam 1 1 jparam 1 3

# fix ID group-ID bond/break Nevery bondtype Rmax keyword values ...
fix bondbr rxnSites bond/break 20 3 12.72 prob 1 ${seed}
fix bondbr rxnSites bond/break 20 3 12.72 prob 1 364747

variable frmbnd equal f_bondc[2]
variable brkbnd equal f_bondbr[2]
fix saveBond all print ${dt_thermo} "$t ${frmbnd} ${brkbnd}" file BondData_${fName}.dat screen no
fix saveBond all print 1000000 "$t ${frmbnd} ${brkbnd}" file BondData_${fName}.dat screen no
fix saveBond all print 1000000 "$t ${frmbnd} ${brkbnd}" file BondData_Run5_Relax_Es_5kT_Ens_05kT_input.dat screen no

thermo_style    custom step epair pe ke ebond eangle temp bonds
thermo          ${dt_thermo}
thermo          1000000
fix saveThermo all print ${dt_thermo} "$t $(temp) $(ke) $(pe) $(epair) $(ebond) $(eangle) $(bonds)" file Thermo_${fName}.dat title "# Steps Temp KinEng PotEng Epair Ebond Eangle Bonds" screen no
fix saveThermo all print 1000000 "$t $(temp) $(ke) $(pe) $(epair) $(ebond) $(eangle) $(bonds)" file Thermo_${fName}.dat title "# Steps Temp KinEng PotEng Epair Ebond Eangle Bonds" screen no
fix saveThermo all print 1000000 "$t $(temp) $(ke) $(pe) $(epair) $(ebond) $(eangle) $(bonds)" file Thermo_Run5_Relax_Es_5kT_Ens_05kT_input.dat title "# Steps Temp KinEng PotEng Epair Ebond Eangle Bonds" screen no

############################ Langevin Dynamics ###############################
fix fxlan all langevin $T $T 500 ${seed}
fix fxlan all langevin 310 $T 500 ${seed}
fix fxlan all langevin 310 310 500 ${seed}
fix fxlan all langevin 310 310 500 364747
fix fxnve all nve

comm_style tiled
fix fxbal all balance 1000 1.1 rcb # load balance for spatially heterogeneous system

timestep 25

restart ${dt_data} ${fName}_tp_*.restart
restart 10000000 ${fName}_tp_*.restart
restart 10000000 Run5_Relax_Es_5kT_Ens_05kT_input_tp_*.restart
dump coor all custom ${dt_movie} traj_${fName}.dump id type mol mass x y z xu yu zu
dump coor all custom 1000000 traj_${fName}.dump id type mol mass x y z xu yu zu
dump coor all custom 1000000 traj_Run5_Relax_Es_5kT_Ens_05kT_input.dump id type mol mass x y z xu yu zu

run ${steps}
run 100000000
Neighbor list info ...
  update every 1 steps, delay 1 steps, check yes
  max neighbors/atom: 2000, page size: 100000
  master list distance cutoff = 26.9
  ghost atom cutoff = 26.9
  binsize = 13.45, bins = 38 38 38
  2 neighbor lists, perpetual/occasional/extra = 1 1 0
  (1) pair lj/cut, perpetual
      attributes: half, newton on
      pair build: half/bin/newton
      stencil: half/bin/3d/newton
      bin: standard
  (2) fix bond/create/random, occasional, copy from (1)
      attributes: half, newton on
      pair build: copy
      stencil: none
      bin: none
WARNING: Inconsistent image flags (../domain.cpp:784)
Per MPI rank memory allocation (min/avg/max) = 10.27 | 10.55 | 11.2 Mbytes
Step E_pair PotEng KinEng E_bond E_angle Temp Bonds 
300000000   -3871.1467    520.89237    4604.6364    1601.0349    2791.0041    309.01382     5295 
301000000   -3895.2465       464.05    4671.5638    1557.8807    2801.4157    313.50527     5297 
302000000   -3906.0294    480.74617     4463.022    1548.4825    2838.2931    299.51018     5297 
303000000   -3924.1285    525.97031    4682.2397    1543.2098    2906.8889    314.22172     5297 
304000000    -3972.352    469.67121    4618.0949    1606.5973    2835.4259    309.91701     5297 
305000000   -3864.7162    558.35746    4583.2421    1579.2336    2843.8401    307.57806     5297 
306000000   -3949.9469    527.28014    4680.6244    1578.9257    2898.3014    314.11332     5297 
307000000    -3950.773    480.72791    4598.9906    1525.9342    2905.5667    308.63493     5297 
308000000   -3817.3865    624.61159    4620.0352    1559.1468    2882.8513    310.04722     5297 
309000000   -3893.6194    515.12835    4621.1416    1546.6515    2862.0963    310.12147     5296 
310000000   -3917.6232    518.90351    4605.1746    1573.5361    2862.9905    309.04994     5296 
311000000   -3856.3948    566.68178    4611.9637    1536.7037    2886.3728    309.50555     5295 
312000000   -3900.2013    493.28205    4644.9668    1537.1396    2856.3437    311.72037     5296 
313000000   -3890.1864    594.79741    4584.1118    1577.1609    2907.8228    307.63643     5296 
314000000   -3859.3893     513.6628    4582.1956    1549.9344    2823.1177    307.50783     5296 
315000000   -3850.2411    610.39033    4602.8429    1582.6968    2877.9346    308.89346     5297 
316000000   -3793.5048     619.9713    4599.1746     1534.799    2878.6772    308.64729     5297 
317000000   -3903.2074     577.4717    4683.7679    1590.4025    2890.2765    314.32428     5297 
318000000   -3846.6536    539.26579    4677.2821    1518.5819    2867.3375    313.88902     5297 
319000000   -3886.1686    558.50825    4580.3263    1607.6953    2836.9816    307.38238     5297 
320000000    -3820.405    573.78504     4634.892    1496.4438    2897.7462    311.04425     5297 
321000000   -3752.1682    683.90557    4630.5538    1544.4895    2891.5843    310.75312     5296 
322000000   -3791.7429    651.50275      4707.28    1563.9212    2879.3245    315.90216     5295 
323000000   -3902.7538    516.09333    4653.6846    1567.4765    2851.3706    312.30541     5294 
324000000   -3880.0276    583.61058    4570.9586    1584.3688    2879.2693    306.75373     5295 
325000000   -3887.9267    578.91136    4687.3523    1573.3614    2893.4766    314.56483     5294 
326000000   -3929.9566    561.66562    4571.0531    1641.3438    2850.2784    306.76007     5295 
327000000   -3805.1612     592.0065    4660.3151    1555.9912    2841.1765    312.75038     5296 
328000000   -3835.4084    625.83756    4636.8732    1530.7985    2930.4474    311.17721     5295 
329000000   -3874.4891    568.33189    4681.1825    1554.4389    2888.3821    314.15077     5296 
330000000   -3811.4692    597.72672    4611.2649    1499.1698    2910.0261    309.45865     5296 
331000000   -3911.4337    520.16847    4591.1894    1566.0989    2865.5033     308.1114     5296 
332000000   -3867.1294    602.10603    4694.4959    1563.2401    2905.9953    315.04423     5296 
333000000    -3867.826     569.2754    4535.2576    1578.6259    2858.4755    304.35786     5296 
334000000   -3831.3632    581.61365    4647.8365    1529.6335    2883.3434    311.91295     5295 
335000000   -3900.4279    469.56056    4667.2042    1520.4552    2849.5333     313.2127     5295 
336000000    -3922.454    600.80008    4541.7844    1605.9144    2917.3397    304.79587     5295 
337000000   -3859.1174    608.75153    4600.6777    1542.3142    2925.5547    308.74815     5294 
338000000   -3785.5542    684.12554    4634.3109    1607.4424    2862.2373    311.00526     5294 
339000000   -3790.6134    613.08429    4635.9434     1561.677    2842.0207    311.11481     5295 
340000000    -3738.951    663.06622    4623.5253    1578.9666    2823.0506    310.28144     5296 
341000000    -3860.485    513.90997    4566.9568    1532.3933    2842.0017    306.48517     5296 
342000000   -3887.2456    566.53459    4705.0249     1567.807    2885.9731    315.75082     5296 
343000000   -3911.9028    521.96392    4666.1744    1556.5957    2877.2711    313.14359     5295 
344000000   -3878.3362    562.12476    4675.8253     1556.857     2883.604    313.79126     5296 
345000000   -3876.4732    542.96793    4666.5526     1538.147    2881.2941    313.16897     5296 
346000000   -3924.1146    466.92017    4633.1088    1557.7616    2833.2732    310.92458     5296 
347000000   -3834.1811    576.79086     4546.347    1574.7578    2836.2142    305.10206     5295 
348000000   -3901.7305    432.84809    4504.1159    1523.9214    2810.6571    302.26796     5294 
349000000   -3957.9809    479.03248    4567.7316    1520.0523    2916.9611    306.53717     5294 
350000000   -3854.2397    533.16022     4619.963     1527.829     2859.571    310.04238     5293 
351000000   -3849.5678    611.53325    4521.4405    1597.6146    2863.4865     303.4306     5294 
352000000   -3825.7967    553.37098    4615.7686    1536.5299    2842.6378     309.7609     5296 
353000000   -3939.7732    451.70856    4599.2294    1586.5616    2804.9202    308.65096     5296 
354000000   -3937.7696    507.44321    4661.3801    1567.1282    2878.0846    312.82185     5294 
355000000   -3855.3907    645.94169    4603.4094    1598.2303    2903.1022    308.93147     5295 
356000000   -3860.8938    550.48529    4579.2683    1573.9712    2837.4079    307.31139     5295 
357000000   -3814.2501    602.76426    4685.6322    1582.0118    2835.0026    314.44939     5295 
358000000   -3968.0652    441.90812    4589.6747    1517.3498    2892.6236    308.00975     5296 
359000000   -3868.0449    542.76589    4539.5232    1583.9903    2826.8205    304.64412     5296 
360000000   -3855.3838     657.3165    4710.9132    1601.8664    2910.8339    316.14598     5295 
361000000   -3833.4923    565.86094    4655.4311    1540.1843    2859.1689    312.42262     5296 
362000000   -3912.0158    507.87988     4670.545     1574.274    2845.6217     313.4369     5297 
363000000   -3892.4781    486.28501    4617.4169    1535.1126    2843.6505    309.87151     5297 
364000000   -3855.7719    544.24482    4622.7804    1574.6998    2825.3169    310.23145     5296 
365000000   -3980.9486    347.81472    4666.9832    1538.1986    2790.5647    313.19787     5296 
366000000   -3895.7088    577.10976    4522.2815    1572.3493    2900.4692    303.48704     5297 
367000000   -3825.8003    618.92432    4649.5158    1570.0578    2874.6668    312.02564     5297 
368000000   -3879.5844    512.09948    4523.4052    1569.1104    2822.5735    303.56246     5297 
369000000   -3977.1381    407.92475    4562.2457    1565.4208     2819.642    306.16901     5297 
370000000   -3921.3348    476.86109    4751.9026    1531.9479    2866.2481    318.89675     5297 
371000000   -3880.4748    586.59354     4672.301    1529.6468    2937.4215    313.55474     5297 
372000000   -3822.4058    675.97759    4656.1213    1606.6289    2891.7544    312.46893     5297 
373000000   -3750.9628    634.60605    4770.7869    1579.9743    2805.5945    320.16406     5297 
374000000   -3854.5402    536.26773     4723.663    1520.2514    2870.5566    317.00161     5297 
375000000   -3879.4337    545.36973    4707.6091    1529.1548    2895.6486    315.92424     5297 
376000000   -3910.6762    520.25655    4622.9208    1565.8028      2865.13    310.24088     5297 
377000000   -3880.4961    526.25056    4571.7791    1525.6212    2881.1254    306.80879     5296 
378000000   -3844.7891    713.23894    4651.8662    1581.7305    2976.2976    312.18338     5297 
379000000   -3891.7879    585.32822    4466.6009    1581.7269    2895.3892    299.75036     5296 
380000000   -3869.0203    592.09796    4669.8098    1619.6307    2841.4875    313.38756     5297 
381000000   -3811.7875    579.06404     4576.313    1571.2899    2819.5616    307.11306     5296 
382000000   -3782.1321    607.55247    4642.9027    1536.2521    2853.4324    311.58185     5296 
383000000   -3792.4848    569.38333    4747.0059    1535.2381      2826.63    318.56813     5296 
384000000   -3852.8432    603.02161    4610.8636     1554.254    2901.6107    309.43172     5296 
385000000   -3841.7153    558.86841    4557.7824    1534.8349    2865.7489    305.86948     5296 
386000000   -3844.2832     577.4078    4723.8583     1548.362     2873.329    317.01471     5296 
387000000   -3927.8369    409.25678    4593.5883    1487.0353    2850.0584    308.27239     5296 
388000000   -3880.3107    600.22239    4659.2043    1621.7839    2858.7492    312.67583     5296 
389000000   -3792.4264    618.21504    4597.7417    1593.2268    2817.4146    308.55112     5296 
390000000   -3924.7548    601.97562    4557.3158    1596.8965    2929.8339    305.83817     5296 
391000000   -3811.1679    698.03202    4638.9128    1609.7256    2899.4744    311.31408     5296 
392000000   -3804.3998    661.79168    4762.9298    1589.8619    2876.3295    319.63678     5296 
393000000   -3771.3695    649.01871    4694.8906    1562.2873    2858.1008    315.07072     5295 
394000000   -3897.9035    526.94544    4556.4478     1518.818     2906.031    305.77992     5295 
395000000   -3831.8053    609.07671     4594.358    1513.9279    2926.9541    308.32405     5296 
396000000   -3830.7591    621.73394    4578.6118    1539.5239    2912.9691    307.26733     5295 
397000000     -3771.54    680.62187    4603.8999    1522.5022    2929.6597     308.9644     5295 
398000000   -3877.3631    615.24054    4674.7734    1596.8576    2895.7461    313.72066     5295 
399000000   -3849.7947    568.82292    4678.3187     1546.113    2872.5047    313.95859     5295 
400000000   -3780.2329     632.4259    4629.1831     1561.256    2851.4027    310.66113     5294 
Loop time of 26658.7 on 10 procs for 100000000 steps with 5000 atoms

Performance: 8102.433 ns/day, 0.003 hours/ns, 3751.126 timesteps/s
99.7% CPU use with 10 MPI tasks x no OpenMP threads

MPI task timing breakdown:
Section |  min time  |  avg time  |  max time  |%varavg| %total
---------------------------------------------------------------
Pair    | 9296       | 10488      | 11645      | 720.6 | 39.34
Bond    | 1581.4     | 1602.4     | 1626       |  33.9 |  6.01
Neigh   | 3571.8     | 3589.3     | 3607.7     |  16.4 | 13.46
Comm    | 5191.8     | 6429.9     | 7869.6     |1014.1 | 24.12
Output  | 0.61046    | 0.61058    | 0.61066    |   0.0 |  0.00
Modify  | 3584.2     | 3619.3     | 3677.8     |  47.0 | 13.58
Other   |            | 929        |            |       |  3.48

Nlocal:    500 ave 528 max 463 min
Histogram: 1 0 0 2 1 3 0 0 0 3
Nghost:    715.8 ave 934 max 561 min
Histogram: 1 0 4 2 1 0 0 0 0 2
Neighs:    9960.3 ave 10681 max 8861 min
Histogram: 1 1 1 0 1 0 1 0 2 3

Total # of neighbors = 99603
Ave neighs/atom = 19.9206
Ave special neighs/atom = 7.4904
Neighbor list builds = 5030673
Dangerous builds = 0
write_restart final_state_${fName}.restart
write_restart final_state_Run5_Relax_Es_5kT_Ens_05kT_input.restart
Total wall time: 7:24:19
