
units           real
boundary p p p
atom_style      full

read_restart final_state_Relax_Es_5kT_Ens_05kT.restart
WARNING: Restart file used different # of processors (../read_restart.cpp:740)
  restoring atom style full from restart
  orthogonal box = (-250 -250 -250) to (250 250 250)
  1 by 2 by 5 MPI processor grid
  restoring pair style lj/cut from restart
  restoring bond style harmonic from restart
  restoring angle style cosine from restart
  5000 atoms
  5295 bonds
  4600 angles
  3 = max # of 1-2 neighbors
  4 = max # of 1-3 neighbors
  8 = max # of 1-4 neighbors
  16 = max # of special neighbors
  special bonds CPU = 0.00784636 secs
  read_restart CPU = 0.122319 secs

neighbor 1.9 bin
neigh_modify every 1 delay 1 check yes

angle_style  cosine
angle_coeff   *  2  # K (energy unit)

bond_style      harmonic
# bond-type, K (energy/distance^2), R0 (distance)
bond_coeff   1   3   10
bond_coeff   2   3   10
bond_coeff   3   3   11.22

pair_style lj/cut 25
# atom-typ1, atom-typ2, energy-well, sigma (bead-diameter), cut-off (distance)
pair_coeff  * * 0.3 10 25

special_bonds lj  1 1 1 angle no

variable t equal step
variable steps equal 100000000
variable dt_thermo equal 1000000
variable dt_movie equal 1000000
variable dt_data equal 10000000

group rxnSites type 1 3
1000 atoms in group rxnSites

# fix ID group-ID(atom-types) bond/create Nevery itype jtype Rmin bondtype (prob values = fraction seed) (iparam maxbond newType)
fix bondc rxnSites bond/create/random 20 1 3 12.72 3 prob 1 ${seed} iparam 1 1 jparam 1 3
fix bondc rxnSites bond/create/random 20 1 3 12.72 3 prob 1 467083 iparam 1 1 jparam 1 3

# fix ID group-ID bond/break Nevery bondtype Rmax keyword values ...
fix bondbr rxnSites bond/break 20 3 12.72 prob 1 ${seed}
fix bondbr rxnSites bond/break 20 3 12.72 prob 1 467083

variable frmbnd equal f_bondc[2]
variable brkbnd equal f_bondbr[2]
fix saveBond all print ${dt_thermo} "$t ${frmbnd} ${brkbnd}" file BondData_${fName}.dat screen no
fix saveBond all print 1000000 "$t ${frmbnd} ${brkbnd}" file BondData_${fName}.dat screen no
fix saveBond all print 1000000 "$t ${frmbnd} ${brkbnd}" file BondData_Run7_Relax_Es_5kT_Ens_05kT_input.dat screen no

thermo_style    custom step epair pe ke ebond eangle temp bonds
thermo          ${dt_thermo}
thermo          1000000
fix saveThermo all print ${dt_thermo} "$t $(temp) $(ke) $(pe) $(epair) $(ebond) $(eangle) $(bonds)" file Thermo_${fName}.dat title "# Steps Temp KinEng PotEng Epair Ebond Eangle Bonds" screen no
fix saveThermo all print 1000000 "$t $(temp) $(ke) $(pe) $(epair) $(ebond) $(eangle) $(bonds)" file Thermo_${fName}.dat title "# Steps Temp KinEng PotEng Epair Ebond Eangle Bonds" screen no
fix saveThermo all print 1000000 "$t $(temp) $(ke) $(pe) $(epair) $(ebond) $(eangle) $(bonds)" file Thermo_Run7_Relax_Es_5kT_Ens_05kT_input.dat title "# Steps Temp KinEng PotEng Epair Ebond Eangle Bonds" screen no

############################ Langevin Dynamics ###############################
fix fxlan all langevin $T $T 500 ${seed}
fix fxlan all langevin 310 $T 500 ${seed}
fix fxlan all langevin 310 310 500 ${seed}
fix fxlan all langevin 310 310 500 467083
fix fxnve all nve

comm_style tiled
fix fxbal all balance 1000 1.1 rcb # load balance for spatially heterogeneous system

timestep 25

restart ${dt_data} ${fName}_tp_*.restart
restart 10000000 ${fName}_tp_*.restart
restart 10000000 Run7_Relax_Es_5kT_Ens_05kT_input_tp_*.restart
dump coor all custom ${dt_movie} traj_${fName}.dump id type mol mass x y z xu yu zu
dump coor all custom 1000000 traj_${fName}.dump id type mol mass x y z xu yu zu
dump coor all custom 1000000 traj_Run7_Relax_Es_5kT_Ens_05kT_input.dump id type mol mass x y z xu yu zu

run ${steps}
run 100000000
Neighbor list info ...
  update every 1 steps, delay 1 steps, check yes
  max neighbors/atom: 2000, page size: 100000
  master list distance cutoff = 26.9
  ghost atom cutoff = 26.9
  binsize = 13.45, bins = 38 38 38
  2 neighbor lists, perpetual/occasional/extra = 1 1 0
  (1) pair lj/cut, perpetual
      attributes: half, newton on
      pair build: half/bin/newton
      stencil: half/bin/3d/newton
      bin: standard
  (2) fix bond/create/random, occasional, copy from (1)
      attributes: half, newton on
      pair build: copy
      stencil: none
      bin: none
WARNING: Inconsistent image flags (../domain.cpp:784)
Per MPI rank memory allocation (min/avg/max) = 10.27 | 10.55 | 11.2 Mbytes
Step E_pair PotEng KinEng E_bond E_angle Temp Bonds 
300000000   -3871.1467    520.89237    4604.6364    1601.0349    2791.0041    309.01382     5295 
301000000   -3807.4529     589.2926    4600.5164    1577.3626     2819.383    308.73733     5293 
302000000   -3850.9699    680.89562    4673.0556    1627.1055    2904.7601    313.60538     5294 
303000000   -3869.0316    587.45458    4638.8635    1565.4853    2891.0009    311.31078     5295 
304000000   -3845.2538    582.46083    4744.6652    1581.4652    2846.2495    318.41105     5295 
305000000   -3832.3617    637.72898      4692.85    1557.5274    2912.5633    314.93377     5295 
306000000   -3916.2317     544.0008    4596.7551    1555.7805     2904.452    308.48491     5294 
307000000   -3864.6521    603.73661    4575.5635    1576.0415    2892.3472    307.06276     5295 
308000000   -3921.6942    546.74136    4620.0384    1573.2274    2895.2082    310.04743     5295 
309000000   -3845.7099    579.34526    4618.3759    1595.7593    2829.2958    309.93587     5295 
310000000   -3813.1982    605.81493    4678.6937    1575.9713    2843.0418    313.98375     5296 
311000000   -3726.4187     651.4955    4669.8551    1504.2373    2873.6769     313.3906     5296 
312000000   -3855.4729    559.08826     4593.647    1562.2779    2852.2833    308.27633     5295 
313000000    -3955.794    527.63272    4599.9819    1584.7803    2898.6464    308.70146     5295 
314000000   -3923.2507    548.31138      4564.05    1613.4851     2858.077    306.29009     5296 
315000000   -3830.4562    581.51631    4658.4646    1559.3076    2852.6649    312.62619     5296 
316000000   -3872.1896    599.47826     4702.399      1544.91    2926.7579     315.5746     5295 
317000000   -3905.2039    551.12409    4602.6332    1614.5172    2841.8107    308.87939     5293 
318000000   -3884.0025    524.25287    4685.6028    1556.6915    2851.5639    314.44742     5295 
319000000   -3834.6195    585.39894    4587.5449    1593.9201    2826.0982    307.86682     5295 
320000000   -3804.9721    688.19094    4619.2458    1589.0716    2904.0915    309.99425     5295 
321000000   -3852.0009    464.15492    4695.7346    1502.2554    2813.9004    315.12735     5294 
322000000   -3913.6902    496.40271    4579.6649    1523.7921    2886.3008      307.338     5294 
323000000   -3857.0104      550.422    4608.8789    1577.1149    2830.3175    309.29853     5294 
324000000   -3849.9076    538.16778     4557.723    1589.1206    2798.9548    305.86549     5294 
325000000   -3894.9041    609.78546    4715.3865    1583.3549    2921.3347    316.44618     5295 
326000000   -3849.6591    527.32123    4581.4279    1524.1868    2852.7935    307.45632     5295 
327000000   -3940.5872    528.59514    4588.5918    1550.2539    2918.9285    307.93708     5294 
328000000   -3856.0845    665.86268    4688.9283    1618.5432    2903.4039    314.67059     5294 
329000000   -3900.6822    581.78312    4672.9207    1590.4336    2892.0316    313.59633     5293 
330000000   -3844.0893    557.47997    4600.8991    1508.2068    2893.3624    308.76302     5293 
331000000   -3901.2595    490.43976    4621.5626    1562.0484    2829.6508    310.14972     5294 
332000000   -3943.1107    491.90529    4613.8618    1564.4901    2870.5258    309.63293     5294 
333000000   -3831.9282    552.19108    4633.3827    1540.6458    2843.4735    310.94296     5293 
334000000   -3884.0123    546.67792    4629.8008    1555.3558    2875.3345    310.70259     5294 
335000000   -3933.4606    571.28822    4625.0757    1606.6175    2898.1314    310.38549     5294 
336000000   -3910.0213    469.67234    4560.0333    1512.1798    2867.5139    306.02054     5294 
337000000   -3923.2721    462.45355    4582.7832    1556.2273    2829.4983    307.54727     5294 
338000000   -3842.0278    572.92947    4514.5175    1572.2894    2842.6678    302.96601     5294 
339000000   -3750.6456    639.41341    4657.9523    1525.5872    2864.4718    312.59182     5292 
340000000   -3895.5435    502.40482    4612.2213    1558.0706    2839.8777    309.52284     5291 
341000000   -3839.9658    539.31148    4673.6665    1594.0876    2785.1896    313.64638     5291 
342000000   -3842.1626    576.63088    4657.8026    1580.3993    2838.3942    312.58176     5291 
343000000   -3896.7509    578.20487    4634.4902    1608.8441    2866.1117    311.01729     5292 
344000000   -3797.5146    646.01576    4610.3931    1544.1714     2899.359    309.40015     5293 
345000000   -3911.4897    640.28448    4672.6612    1637.4742       2914.3    313.57892     5293 
346000000    -3861.878    551.45305    4554.4797    1559.7498    2853.5813    305.64784     5292 
347000000   -3980.5356    520.48016    4621.9328     1574.035    2926.9807    310.17457     5293 
348000000   -3813.2715    565.61321    4575.4347    1584.7981    2794.0866    307.05411     5294 
349000000    -3919.691    431.51302    4577.6208    1520.3477    2830.8562    307.20082     5294 
350000000   -3765.9158    556.50467    4506.8373    1502.4843    2819.9362     302.4506     5295 
351000000   -3764.4888    696.30432    4646.9748    1551.1175    2909.6755    311.85512     5295 
352000000   -3929.5955    545.58228    4583.4589    1576.1691    2899.0086    307.59262     5296 
353000000   -3873.7853    560.20581    4608.5154    1533.9162    2900.0749    309.27414     5296 
354000000   -3888.1988    628.76013    4599.3373    1619.7762    2897.1828     308.6582     5296 
355000000   -3923.0041     526.1873    4594.2234    1542.9578    2906.2337    308.31501     5297 
356000000   -3826.8869    498.72544    4539.0817    1548.8946    2776.7178     304.6145     5297 
357000000   -3917.3417     506.3277    4680.8204    1549.9379    2873.7316    314.12648     5297 
358000000   -3898.3382    450.72353    4506.1542    1527.2621    2821.7996    302.40475     5296 
359000000   -3893.8494    479.24323    4692.7267    1527.6747    2845.4179    314.92549     5297 
360000000   -3853.8271     560.6207     4674.142    1559.2803    2855.1675    313.67829     5297 
361000000   -3876.5898    573.34104    4592.7156    1552.8368     2897.094    308.21382     5297 
362000000   -3840.1797    647.15223    4641.8512     1611.464    2875.8679    311.51128     5297 
363000000   -3837.7663    615.65031    4585.9782    1580.7884    2872.6282    307.76168     5297 
364000000   -3876.6506    512.87121    4531.9208     1526.193    2863.3288    304.13393     5297 
365000000   -3872.7573    561.02897    4626.3999    1586.2898    2847.4965    310.47435     5297 
366000000   -3869.2016     460.7194    4559.2158    1517.6987    2812.2223    305.96568     5297 
367000000    -3815.694    603.39563    4591.5434      1567.42    2851.6697    308.13516     5296 
368000000   -3901.6619    534.16359    4629.9793    1566.7197    2869.1058    310.71456     5297 
369000000    -3763.552    592.53206    4581.5588    1555.3552    2800.7288     307.4651     5297 
370000000   -3839.2569    607.37145    4637.9547    1582.7722    2863.8561    311.24979     5297 
371000000    -3925.571    592.96355    4593.8759    1589.6114    2928.9232    308.29169     5297 
372000000   -3840.6289    601.88791    4602.4428    1552.2042    2890.3127    308.86661     5296 
373000000   -3845.7766    650.97055    4640.8798    1607.1518    2889.5953    311.44609     5297 
374000000   -3964.0168    417.80658    4669.5007    1551.9434      2829.88    313.36682     5296 
375000000   -3836.5333    503.48891    4627.3536    1505.0407    2834.9815    310.53835     5295 
376000000   -3870.0594    536.63702     4621.855    1540.3035    2866.3929    310.16935     5296 
377000000   -3844.0907    537.18245    4610.2704    1568.9542    2812.3189    309.39191     5294 
378000000   -3817.5142    615.97467    4723.6561     1556.477    2877.0118    317.00115     5295 
379000000   -3778.3409    566.94018    4655.5532    1546.8612    2798.4198    312.43081     5295 
380000000   -3901.6975    433.34173    4614.2223    1540.7199    2794.3194    309.65713     5295 
381000000   -3852.8521    569.82766    4588.0018    1537.6441    2885.0356    307.89748     5295 
382000000   -3861.2685    566.77296    4671.0791    1594.6596    2833.3818    313.47274     5294 
383000000   -3811.1023    600.25961    4673.2716    1539.9941    2871.3677    313.61988     5294 
384000000   -3796.3132    555.50671    4621.8562     1533.703    2818.1169    310.16943     5293 
385000000   -3872.2828    532.09525    4642.6985    1560.0372    2844.3408    311.56814     5293 
386000000   -3815.3913    648.93392    4581.9652    1580.1441    2884.1811    307.49237     5294 
387000000   -3819.0096    630.97974    4763.0251    1590.0501    2859.9393    319.64318     5295 
388000000   -3810.1605    634.18163    4579.9925    1565.3711    2878.9711    307.35999     5294 
389000000   -3816.9573    541.44951    4599.6215    1494.5208     2863.886    308.67728     5294 
390000000   -3818.0059     577.7476    4649.9414    1536.6688    2859.0847    312.05421     5294 
391000000   -3877.7905    556.17906    4572.8648    1570.9293    2863.0402    306.88165     5294 
392000000   -3929.4343    574.85521    4631.2527    1567.6856    2936.6039    310.80002     5294 
393000000   -3818.1172    631.42913    4604.3591    1536.1673    2913.3791    308.99521     5294 
394000000   -3869.7137    486.90338    4729.4292    1504.7721    2851.8449    317.38857     5294 
395000000   -3894.0089    566.81156    4648.1679     1590.932    2869.8885    311.93519     5294 
396000000   -3824.2244    588.27598    4696.5836    1538.0975    2874.4029    315.18433     5294 
397000000      -3878.5    558.12252    4655.2157    1591.5333    2845.0893    312.40816     5294 
398000000   -3854.6207    614.87784     4564.673      1604.55    2864.9485     306.3319     5293 
399000000   -3832.4937    577.73898    4503.7657    1495.7465    2914.4862    302.24446     5294 
400000000   -3764.1109    625.22709    4601.1982    1554.5248    2834.8132    308.78308     5293 
Loop time of 27462.5 on 10 procs for 100000000 steps with 5000 atoms

Performance: 7865.281 ns/day, 0.003 hours/ns, 3641.334 timesteps/s
99.6% CPU use with 10 MPI tasks x no OpenMP threads

MPI task timing breakdown:
Section |  min time  |  avg time  |  max time  |%varavg| %total
---------------------------------------------------------------
Pair    | 9030       | 10558      | 11903      | 814.9 | 38.45
Bond    | 1539.5     | 1609.5     | 1661.5     |  98.3 |  5.86
Neigh   | 3602.3     | 3621.4     | 3647.4     |  24.1 | 13.19
Comm    | 5499.6     | 6933.7     | 8707.6     |1113.1 | 25.25
Output  | 0.68306    | 0.68315    | 0.68326    |   0.0 |  0.00
Modify  | 3636.9     | 3737.2     | 3828.2     |  82.8 | 13.61
Other   |            | 1002       |            |       |  3.65

Nlocal:    500 ave 517 max 481 min
Histogram: 2 1 0 1 0 0 2 2 1 1
Nghost:    741.6 ave 996 max 628 min
Histogram: 3 3 1 1 0 0 0 0 0 2
Neighs:    9932.1 ave 11226 max 8705 min
Histogram: 1 1 1 2 1 1 0 0 1 2

Total # of neighbors = 99321
Ave neighs/atom = 19.8642
Ave special neighs/atom = 7.4852
Neighbor list builds = 5030440
Dangerous builds = 0
write_restart final_state_${fName}.restart
write_restart final_state_Run7_Relax_Es_5kT_Ens_05kT_input.restart
Total wall time: 7:37:43
