
units           real
boundary p p p
atom_style      full

read_restart final_state_Relax_Es_5kT_Ens_05kT.restart
WARNING: Restart file used different # of processors (../read_restart.cpp:740)
  restoring atom style full from restart
  orthogonal box = (-250 -250 -250) to (250 250 250)
  1 by 2 by 5 MPI processor grid
  restoring pair style lj/cut from restart
  restoring bond style harmonic from restart
  restoring angle style cosine from restart
  5000 atoms
  5295 bonds
  4600 angles
  3 = max # of 1-2 neighbors
  4 = max # of 1-3 neighbors
  8 = max # of 1-4 neighbors
  16 = max # of special neighbors
  special bonds CPU = 0.00950379 secs
  read_restart CPU = 0.171683 secs

neighbor 1.9 bin
neigh_modify every 1 delay 1 check yes

angle_style  cosine
angle_coeff   *  2  # K (energy unit)

bond_style      harmonic
# bond-type, K (energy/distance^2), R0 (distance)
bond_coeff   1   3   10
bond_coeff   2   3   10
bond_coeff   3   3   11.22

pair_style lj/cut 25
# atom-typ1, atom-typ2, energy-well, sigma (bead-diameter), cut-off (distance)
pair_coeff  * * 0.3 10 25

special_bonds lj  1 1 1 angle no

variable t equal step
variable steps equal 100000000
variable dt_thermo equal 1000000
variable dt_movie equal 1000000
variable dt_data equal 10000000

group rxnSites type 1 3
1000 atoms in group rxnSites

# fix ID group-ID(atom-types) bond/create Nevery itype jtype Rmin bondtype (prob values = fraction seed) (iparam maxbond newType)
fix bondc rxnSites bond/create/random 20 1 3 12.72 3 prob 1 ${seed} iparam 1 1 jparam 1 3
fix bondc rxnSites bond/create/random 20 1 3 12.72 3 prob 1 677101 iparam 1 1 jparam 1 3

# fix ID group-ID bond/break Nevery bondtype Rmax keyword values ...
fix bondbr rxnSites bond/break 20 3 12.72 prob 1 ${seed}
fix bondbr rxnSites bond/break 20 3 12.72 prob 1 677101

variable frmbnd equal f_bondc[2]
variable brkbnd equal f_bondbr[2]
fix saveBond all print ${dt_thermo} "$t ${frmbnd} ${brkbnd}" file BondData_${fName}.dat screen no
fix saveBond all print 1000000 "$t ${frmbnd} ${brkbnd}" file BondData_${fName}.dat screen no
fix saveBond all print 1000000 "$t ${frmbnd} ${brkbnd}" file BondData_Run9_Relax_Es_5kT_Ens_05kT_input.dat screen no

thermo_style    custom step epair pe ke ebond eangle temp bonds
thermo          ${dt_thermo}
thermo          1000000
fix saveThermo all print ${dt_thermo} "$t $(temp) $(ke) $(pe) $(epair) $(ebond) $(eangle) $(bonds)" file Thermo_${fName}.dat title "# Steps Temp KinEng PotEng Epair Ebond Eangle Bonds" screen no
fix saveThermo all print 1000000 "$t $(temp) $(ke) $(pe) $(epair) $(ebond) $(eangle) $(bonds)" file Thermo_${fName}.dat title "# Steps Temp KinEng PotEng Epair Ebond Eangle Bonds" screen no
fix saveThermo all print 1000000 "$t $(temp) $(ke) $(pe) $(epair) $(ebond) $(eangle) $(bonds)" file Thermo_Run9_Relax_Es_5kT_Ens_05kT_input.dat title "# Steps Temp KinEng PotEng Epair Ebond Eangle Bonds" screen no

############################ Langevin Dynamics ###############################
fix fxlan all langevin $T $T 500 ${seed}
fix fxlan all langevin 310 $T 500 ${seed}
fix fxlan all langevin 310 310 500 ${seed}
fix fxlan all langevin 310 310 500 677101
fix fxnve all nve

comm_style tiled
fix fxbal all balance 1000 1.1 rcb # load balance for spatially heterogeneous system

timestep 25

restart ${dt_data} ${fName}_tp_*.restart
restart 10000000 ${fName}_tp_*.restart
restart 10000000 Run9_Relax_Es_5kT_Ens_05kT_input_tp_*.restart
dump coor all custom ${dt_movie} traj_${fName}.dump id type mol mass x y z xu yu zu
dump coor all custom 1000000 traj_${fName}.dump id type mol mass x y z xu yu zu
dump coor all custom 1000000 traj_Run9_Relax_Es_5kT_Ens_05kT_input.dump id type mol mass x y z xu yu zu

run ${steps}
run 100000000
Neighbor list info ...
  update every 1 steps, delay 1 steps, check yes
  max neighbors/atom: 2000, page size: 100000
  master list distance cutoff = 26.9
  ghost atom cutoff = 26.9
  binsize = 13.45, bins = 38 38 38
  2 neighbor lists, perpetual/occasional/extra = 1 1 0
  (1) pair lj/cut, perpetual
      attributes: half, newton on
      pair build: half/bin/newton
      stencil: half/bin/3d/newton
      bin: standard
  (2) fix bond/create/random, occasional, copy from (1)
      attributes: half, newton on
      pair build: copy
      stencil: none
      bin: none
WARNING: Inconsistent image flags (../domain.cpp:784)
Per MPI rank memory allocation (min/avg/max) = 10.27 | 10.55 | 11.2 Mbytes
Step E_pair PotEng KinEng E_bond E_angle Temp Bonds 
300000000   -3871.1467    520.89237    4604.6364    1601.0349    2791.0041    309.01382     5295 
301000000   -3802.4669    556.99812    4586.0819    1525.4539    2834.0112    307.76864     5295 
302000000   -3905.0054    521.75618    4613.8579    1593.7685    2832.9931    309.63267     5295 
303000000   -3803.2605    710.87468    4553.3947    1609.7724    2904.3627    305.57503     5296 
304000000   -3810.4588      678.452    4666.5481    1579.2192    2909.6916    313.16867     5296 
305000000   -3900.7046    558.40916    4535.6749    1542.7885    2916.3252    304.38587     5295 
306000000   -3894.2731    672.16284     4592.195    1553.8173    3012.6186    308.17889     5296 
307000000   -3885.7681    581.54996      4678.99    1607.7072    2859.6109    314.00364     5296 
308000000   -3904.8235    532.94536    4636.6125    1602.7451    2835.0238    311.15972     5296 
309000000   -3897.5543    499.34846    4612.6215      1486.78    2910.1227    309.54969     5296 
310000000   -3893.4531    531.04632    4589.1913    1606.4416    2818.0578    307.97731     5296 
311000000   -3802.8186    721.48611    4725.7234    1613.8128     2910.492    317.13988     5296 
312000000    -3857.366    601.25182    4569.0196    1559.4572    2899.1606     306.6236     5297 
313000000    -3919.437    553.02742    4738.9846    1575.1834     2897.281    318.02983     5297 
314000000   -3910.5005    559.41619    4635.7078    1593.6039    2876.3128      311.099     5296 
315000000   -3879.7239    566.90969    4568.9866    1549.1989    2897.4347    306.62139     5296 
316000000    -3873.183    603.15068    4663.5254    1556.2289    2920.1048    312.96582     5295 
317000000   -3906.6738    553.22742    4699.9914    1561.0874    2898.8138    315.41302     5296 
318000000   -3887.0528    598.73209    4621.9918    1550.9329    2934.8519    310.17853     5296 
319000000   -3849.4896    566.16903    4670.8316    1569.1719    2846.4867    313.45614     5296 
320000000   -3896.7118    615.59259    4595.6428    1584.3958    2927.9086    308.41027     5296 
321000000   -3816.5045    600.47143    4732.8069    1554.7251    2862.2508    317.61525     5296 
322000000   -3887.2101    542.40947    4675.9334    1536.8766     2892.743    313.79851     5295 
323000000   -3923.9367    511.01158    4597.5133    1593.5389    2841.4094    308.53579     5296 
324000000   -3778.9748    693.66097    4659.6372    1588.6244    2884.0114    312.70488     5296 
325000000   -3776.8668    505.38323     4559.763      1487.76      2794.49     306.0024     5294 
326000000   -3863.4094    601.15007    4670.6228    1586.8699    2877.6895    313.44212     5296 
327000000      -3894.8    524.13867    4666.4524    1561.5199    2857.4188    313.16225     5295 
328000000   -3875.3942    469.31744    4650.1341    1523.4512    2821.2604    312.06714     5296 
329000000   -3795.4084     625.5953    4549.5473    1552.8372    2868.1666    305.31683     5297 
330000000    -3804.645    613.28633    4637.8793     1584.043    2833.8883    311.24473     5297 
331000000   -3828.5551    573.22931    4459.8994    1591.2038    2810.5807    299.30063     5297 
332000000   -3809.6762    609.40678    4614.7001      1549.86     2869.223    309.68919     5297 
333000000   -3748.0343    675.62444    4691.1792    1539.2282    2884.4306    314.82164     5296 
334000000   -3854.9428    583.74257    4584.3697    1591.6041    2847.0812    307.65374     5297 
335000000   -3828.2468    646.20084    4649.6857    1623.3242    2851.1235    312.03705     5297 
336000000   -3868.6726    648.13124    4589.5783    1598.0997    2918.7042    308.00328     5297 
337000000   -3784.0843    672.22166    4615.4626    1571.5071    2884.7989    309.74036     5297 
338000000   -3848.4493    573.14072    4730.0237    1515.8904    2905.6996    317.42847     5297 
339000000   -3852.2485    529.56929    4555.9078    1563.3807    2818.4371    305.74368     5296 
340000000   -3834.3765    636.69684    4598.0571    1573.7484     2897.325    308.57229     5297 
341000000   -3994.1857     458.9581     4643.928    1591.3911    2861.7527    311.65065     5297 
342000000   -3851.2835      616.516    4559.6386    1548.0745    2919.7251    305.99405     5297 
343000000   -3906.2928    487.58299    4673.7449    1541.8518    2852.0239    313.65164     5297 
344000000   -3935.9097    470.85386    4681.4941    1535.1508    2871.6128    314.17169     5296 
345000000   -3852.1597    642.59817    4563.4142    1626.9537    2867.8041    306.24743     5296 
346000000   -3759.9778    618.30152    4606.0345    1526.4556    2851.8237    309.10765     5296 
347000000   -3806.5134    666.72259    4669.3164    1594.0994    2879.1367    313.35445     5296 
348000000   -3853.6607    595.55458    4712.7644    1583.5408    2865.6745    316.27021     5297 
349000000   -3827.2995    613.62023    4605.2734    1543.3267    2897.5931    309.05657     5297 
350000000    -3791.809    569.45957    4644.4089    1522.2566     2839.012    311.68293     5297 
351000000   -3844.6345    641.62141    4572.0191    1636.2299     2850.026     306.8249     5296 
352000000    -3798.982    599.21216    4564.9705     1539.898    2858.2961    306.35187     5296 
353000000   -3776.6205    643.60181    4561.6676    1571.8614    2848.3609    306.13021     5296 
354000000   -3877.0161    554.80731    4671.5225    1549.6073    2882.2161     313.5025     5295 
355000000   -3887.1955    555.16719    4678.2547    1579.0624    2863.3003    313.95429     5296 
356000000   -3846.5124    573.40415    4534.5095    1550.9508    2868.9657    304.30765     5296 
357000000   -3874.3977    614.51778    4663.0691    1619.4828    2869.4327     312.9352     5296 
358000000   -3897.7755    560.47695    4592.5089    1599.1844    2859.0681    308.19995     5296 
359000000   -3881.7121    535.14305    4576.9646    1564.9851    2851.8701    307.15678     5295 
360000000   -3781.0285    632.84962    4514.7347    1538.1229    2875.7552    302.98058     5297 
361000000   -3835.6762    597.11368    4668.7198    1593.1266    2839.6632    313.31441     5296 
362000000   -3799.0928     598.7713    4568.3721    1626.0007    2771.8635    306.58015     5298 
363000000    -3918.949    448.65699    4735.3096    1521.1995    2846.4065     317.7832     5298 
364000000   -3859.2062     617.1804    4705.3484     1610.575    2865.8116    315.77253     5297 
365000000   -3830.3798    660.15077    4623.1539    1563.0464    2927.4842    310.25652     5297 
366000000   -3866.4683    547.82908    4647.0297    1583.0517    2831.2456     311.8588     5297 
367000000   -3787.5574    626.80418    4585.2032    1568.2349    2846.1267    307.70967     5297 
368000000   -3854.6057    645.10742    4664.8057    1592.7604    2906.9527    313.05174     5297 
369000000     -3894.78    613.70222    4667.8203    1581.6174    2926.8648    313.25405     5296 
370000000   -3875.6183    505.12298    4524.9291    1565.9227    2814.8186    303.66472     5296 
371000000   -3868.3121    545.40284    4678.7218    1502.8101    2910.9049    313.98564     5296 
372000000    -3811.479    620.75727    4628.7175    1534.9022    2897.3341    310.62989     5296 
373000000   -3750.0768    716.56729    4656.9923    1545.7883    2920.8558    312.52738     5297 
374000000   -3855.1285    488.49407    4660.3647     1525.503    2818.1196    312.75371     5297 
375000000   -3784.0629    702.27734    4616.4721    1570.7902    2915.5501     309.8081     5296 
376000000    -3837.784     616.9078    4626.6468    1584.5851    2870.1066    310.49093     5295 
377000000   -3901.6562    594.04663    4630.5984    1542.7019     2953.001    310.75611     5297 
378000000   -3890.8876    547.22409    4617.5196    1560.4534    2877.6584    309.87841     5297 
379000000   -3831.2801     605.2812    4534.6321    1600.5106    2836.0507    304.31588     5297 
380000000   -3859.5989    560.01376    4537.8951    1566.9227    2852.6899    304.53486     5297 
381000000   -3900.3572    527.21318    4613.9231    1549.7939    2877.7765    309.63704     5297 
382000000   -3911.0154     512.4438    4618.1124    1548.3226    2875.1366    309.91818     5296 
383000000   -3893.1521    594.90947    4619.0107    1592.2333    2895.8283    309.97847     5296 
384000000   -3872.5097    594.60503     4656.417    1609.4004    2857.7143    312.48878     5296 
385000000   -3883.6154    533.48369    4473.0236    1525.4516    2891.6475    300.18138     5298 
386000000   -3791.7077    668.56251     4660.321    1589.4954    2870.7748    312.75077     5298 
387000000   -3870.0923    508.41782    4569.9523    1518.9991     2859.511     306.6862     5297 
388000000   -3852.7859    556.18295    4635.0768    1530.5396    2878.4292    311.05665     5296 
389000000   -3928.8325     474.3901    4607.0666    1527.4095    2875.8131    309.17691     5296 
390000000   -3892.7381    517.24723    4514.6453    1555.7171    2854.2683    302.97458     5296 
391000000   -3885.3339    589.25145     4618.082    1537.7447    2936.8407    309.91615     5295 
392000000   -3836.9924     673.8367     4638.053    1604.4994    2906.3297    311.25639     5296 
393000000   -3944.1321    437.74044    4632.5148    1531.8939    2849.9787    310.88472     5296 
394000000   -3861.0188    517.77423    4582.0303    1536.7355    2842.0576    307.49674     5296 
395000000    -3836.826    595.46697    4640.8676    1571.7102    2860.5828    311.44527     5295 
396000000   -3849.2722    527.88685    4636.2527     1543.385    2833.7741    311.13557     5295 
397000000   -3887.9226    542.55764    4661.4824    1542.4019    2888.0783    312.82872     5296 
398000000   -3822.3781    627.37401    4628.9973    1583.7631     2865.989    310.64866     5296 
399000000   -3918.1865    509.81203    4610.6429    1552.5099    2875.4886    309.41691     5295 
400000000   -3852.9833    611.35396    4533.1361    1541.4339    2922.9033    304.21549     5294 
Loop time of 27292.6 on 10 procs for 100000000 steps with 5000 atoms

Performance: 7914.245 ns/day, 0.003 hours/ns, 3664.002 timesteps/s
99.6% CPU use with 10 MPI tasks x no OpenMP threads

MPI task timing breakdown:
Section |  min time  |  avg time  |  max time  |%varavg| %total
---------------------------------------------------------------
Pair    | 9345       | 10548      | 11842      | 709.3 | 38.65
Bond    | 1591.4     | 1604.6     | 1620.4     |  25.0 |  5.88
Neigh   | 3569.1     | 3597.1     | 3622.4     |  28.1 | 13.18
Comm    | 5207.8     | 6719.5     | 8299.4     |1090.6 | 24.62
Output  | 0.61396    | 0.61409    | 0.61419    |   0.0 |  0.00
Modify  | 3713.2     | 3770       | 3829.4     |  55.2 | 13.81
Other   |            | 1053       |            |       |  3.86

Nlocal:    500 ave 520 max 470 min
Histogram: 1 1 0 1 1 0 1 1 2 2
Nghost:    738.5 ave 987 max 611 min
Histogram: 2 2 2 2 0 0 0 0 1 1
Neighs:    10147.7 ave 11823 max 8729 min
Histogram: 2 0 1 0 3 1 1 1 0 1

Total # of neighbors = 101477
Ave neighs/atom = 20.2954
Ave special neighs/atom = 7.4868
Neighbor list builds = 5030410
Dangerous builds = 0
write_restart final_state_${fName}.restart
write_restart final_state_Run9_Relax_Es_5kT_Ens_05kT_input.restart
Total wall time: 7:34:53
