
units           real
boundary p p p
atom_style      full

read_restart final_state_Relax_Es_3kT_Ens_05kT.restart
WARNING: Restart file used different # of processors (../read_restart.cpp:740)
  restoring atom style full from restart
  orthogonal box = (-250 -250 -250) to (250 250 250)
  1 by 2 by 5 MPI processor grid
  restoring pair style lj/cut from restart
  restoring bond style harmonic from restart
  restoring angle style cosine from restart
  5000 atoms
  5251 bonds
  4600 angles
  3 = max # of 1-2 neighbors
  4 = max # of 1-3 neighbors
  8 = max # of 1-4 neighbors
  16 = max # of special neighbors
  special bonds CPU = 0.0160943 secs
  read_restart CPU = 0.112323 secs

neighbor 1.9 bin
neigh_modify every 1 delay 1 check yes

angle_style  cosine
angle_coeff   *  2  # K (energy unit)

bond_style      harmonic
# bond-type, K (energy/distance^2), R0 (distance)
bond_coeff   1   3   10
bond_coeff   2   3   10
bond_coeff   3   1.8   11.22

pair_style lj/cut 25
# atom-typ1, atom-typ2, energy-well, sigma (bead-diameter), cut-off (distance)
pair_coeff  * * 0.3 10 25

special_bonds lj  1 1 1 angle no

variable t equal step
variable steps equal 100000000
variable dt_thermo equal 1000000
variable dt_movie equal 1000000
variable dt_data equal 10000000

group rxnSites type 1 3
1000 atoms in group rxnSites

# fix ID group-ID(atom-types) bond/create Nevery itype jtype Rmin bondtype (prob values = fraction seed) (iparam maxbond newType)
fix bondc rxnSites bond/create/random 20 1 3 12.72 3 prob 1 ${seed} iparam 1 1 jparam 1 3
fix bondc rxnSites bond/create/random 20 1 3 12.72 3 prob 1 915568 iparam 1 1 jparam 1 3

# fix ID group-ID bond/break Nevery bondtype Rmax keyword values ...
fix bondbr rxnSites bond/break 20 3 12.72 prob 1 ${seed}
fix bondbr rxnSites bond/break 20 3 12.72 prob 1 915568

variable frmbnd equal f_bondc[2]
variable brkbnd equal f_bondbr[2]
fix saveBond all print ${dt_thermo} "$t ${frmbnd} ${brkbnd}" file BondData_${fName}.dat screen no
fix saveBond all print 1000000 "$t ${frmbnd} ${brkbnd}" file BondData_${fName}.dat screen no
fix saveBond all print 1000000 "$t ${frmbnd} ${brkbnd}" file BondData_Run10_Relax_Es_3kT_Ens_05kT_input.dat screen no

thermo_style    custom step epair pe ke ebond eangle temp bonds
thermo          ${dt_thermo}
thermo          1000000
fix saveThermo all print ${dt_thermo} "$t $(temp) $(ke) $(pe) $(epair) $(ebond) $(eangle) $(bonds)" file Thermo_${fName}.dat title "# Steps Temp KinEng PotEng Epair Ebond Eangle Bonds" screen no
fix saveThermo all print 1000000 "$t $(temp) $(ke) $(pe) $(epair) $(ebond) $(eangle) $(bonds)" file Thermo_${fName}.dat title "# Steps Temp KinEng PotEng Epair Ebond Eangle Bonds" screen no
fix saveThermo all print 1000000 "$t $(temp) $(ke) $(pe) $(epair) $(ebond) $(eangle) $(bonds)" file Thermo_Run10_Relax_Es_3kT_Ens_05kT_input.dat title "# Steps Temp KinEng PotEng Epair Ebond Eangle Bonds" screen no

############################ Langevin Dynamics ###############################
fix fxlan all langevin $T $T 500 ${seed}
fix fxlan all langevin 310 $T 500 ${seed}
fix fxlan all langevin 310 310 500 ${seed}
fix fxlan all langevin 310 310 500 915568
fix fxnve all nve

comm_style tiled
fix fxbal all balance 1000 1.1 rcb # load balance for spatially heterogeneous system

timestep 25

restart ${dt_data} ${fName}_tp_*.restart
restart 10000000 ${fName}_tp_*.restart
restart 10000000 Run10_Relax_Es_3kT_Ens_05kT_input_tp_*.restart
dump coor all custom ${dt_movie} traj_${fName}.dump id type mol mass x y z xu yu zu
dump coor all custom 1000000 traj_${fName}.dump id type mol mass x y z xu yu zu
dump coor all custom 1000000 traj_Run10_Relax_Es_3kT_Ens_05kT_input.dump id type mol mass x y z xu yu zu

run ${steps}
run 100000000
Neighbor list info ...
  update every 1 steps, delay 1 steps, check yes
  max neighbors/atom: 2000, page size: 100000
  master list distance cutoff = 26.9
  ghost atom cutoff = 26.9
  binsize = 13.45, bins = 38 38 38
  2 neighbor lists, perpetual/occasional/extra = 1 1 0
  (1) pair lj/cut, perpetual
      attributes: half, newton on
      pair build: half/bin/newton
      stencil: half/bin/3d/newton
      bin: standard
  (2) fix bond/create/random, occasional, copy from (1)
      attributes: half, newton on
      pair build: copy
      stencil: none
      bin: none
WARNING: Inconsistent image flags (../domain.cpp:784)
Per MPI rank memory allocation (min/avg/max) = 10.27 | 10.6 | 11.19 Mbytes
Step E_pair PotEng KinEng E_bond E_angle Temp Bonds 
300000000   -3808.4485    609.18774    4693.9222     1538.457    2879.1792    315.00573     5251 
301000000   -3816.7638    545.44643    4591.4545    1560.5873     2801.623    308.12919     5255 
302000000   -3785.3265    594.60966    4626.5329    1543.4159    2836.5202    310.48328     5258 
303000000   -3829.7506    591.57137    4593.2661    1562.5978    2858.7243    308.25077     5261 
304000000   -3798.6126    582.55901     4576.787    1527.8412    2853.3304    307.14487     5255 
305000000   -3684.5271    738.72994    4638.5424    1544.9262    2878.3308    311.28923     5253 
306000000   -3814.3036    585.85402    4611.2545    1566.9368    2833.2209    309.45795     5250 
307000000   -3725.2154    779.75926    4696.5879    1579.5463    2925.4284    315.18462     5258 
308000000   -3818.1397    516.63569    4518.8613     1519.744    2815.0315    303.25751     5252 
309000000   -3850.5699     608.5479    4576.2753    1564.1337    2894.9841    307.11053     5258 
310000000   -3691.1643    656.51244    4655.4906    1458.7532    2888.9236    312.42661     5252 
311000000   -3870.3091    456.64881    4643.6163    1517.1278    2809.8301    311.62973     5251 
312000000   -3813.1192    549.99942    4653.3775    1545.5608    2817.5578     312.2848     5259 
313000000   -3762.1435    630.97201    4585.6493    1539.7513    2853.3642    307.73961     5262 
314000000   -3869.6208    574.39866    4597.6102    1549.9426    2894.0768     308.5423     5251 
315000000   -3827.5202    586.25544    4611.1209     1545.176    2868.5996    309.44899     5255 
316000000   -3841.2914    624.10566    4593.5353    1574.9145    2890.4826    308.26884     5260 
317000000   -3701.9198    673.13517    4751.2152     1537.691    2837.3639    318.85061     5256 
318000000   -3757.9413    595.27285    4563.4176    1492.8792     2860.335    306.24766     5244 
319000000   -3817.1657    659.84541    4679.8924     1559.143    2917.8682     314.0642     5261 
320000000   -3750.9589    747.03656    4593.3044     1568.239    2929.7564    308.25334     5252 
321000000   -3843.9274     670.0307    4538.2414    1567.2616    2946.6965     304.5581     5252 
322000000   -3717.9269    622.69909    4600.1958     1495.784     2844.842    308.71581     5247 
323000000   -3701.7955     730.9732    4635.2695    1514.5834    2918.1853    311.06959     5247 
324000000    -3804.545    622.50759    4572.0499    1519.3995    2907.6531    306.82697     5244 
325000000   -3786.1887    565.44663    4585.3943    1509.4705    2842.1649    307.72249     5252 
326000000   -3725.2401    603.35306    4587.9808      1529.75    2798.8431    307.89607     5254 
327000000   -3797.0576    590.64807    4528.0943    1508.4556    2879.2501    303.87714     5264 
328000000   -3721.0849    683.18721    4531.6246    1597.9022    2806.3699    304.11405     5260 
329000000   -3866.9289    554.35528    4544.0062    1587.0623    2834.2219    304.94497     5257 
330000000   -3770.3161    705.91113    4576.7171    1618.4052     2857.822    307.14018     5263 
331000000   -3793.4323    645.67527    4651.6868    1525.5393    2913.5683    312.17134     5250 
332000000   -3729.6019    729.49974    4708.1394    1578.3584    2880.7433    315.95984     5253 
333000000   -3823.8008    558.08974    4614.2641    1573.2974    2808.5931    309.65993     5251 
334000000    -3695.898     683.0726    4601.7708     1585.714    2793.2566    308.82151     5246 
335000000   -3759.4507    684.24358    4691.6784    1571.1466    2872.5477    314.85515     5251 
336000000    -3672.266    732.47587    4590.2918     1513.863    2890.8789    308.05117     5246 
337000000   -3771.0016    567.07985    4611.5587    1495.7153    2842.3661    309.47837     5249 
338000000   -3827.3146    554.67945    4642.7503    1518.7462    2863.2479    311.57162     5250 
339000000   -3749.8936     623.6848    4546.9663     1551.287    2822.2914    305.14362     5253 
340000000    -3736.594    649.11168    4683.1837    1542.3378    2843.3678    314.28508     5252 
341000000   -3772.6627    651.40034    4634.1409    1525.4157    2898.6474    310.99385     5250 
342000000   -3774.2765    619.02647    4620.6015    1506.1428    2887.1601    310.08523     5249 
343000000   -3700.5633    680.71854    4550.1602    1537.1221    2844.1597    305.35796     5250 
344000000   -3795.8914    607.36487    4651.3972    1512.6728    2890.5835     312.1519     5250 
345000000   -3686.0912     740.2011     4684.087    1521.6862    2904.6061    314.34569     5247 
346000000   -3881.2962     532.0695    4655.6782    1533.2556    2880.1101     312.4392     5250 
347000000   -3697.3732    709.43658    4661.3403    1567.9674    2838.8424    312.81918     5253 
348000000   -3734.2317    688.40742    4655.9881    1559.2509    2863.3882    312.45999     5250 
349000000   -3819.0973    478.60491    4561.7269    1480.9414    2816.7609     306.1342     5253 
350000000   -3810.7987     608.3939    4687.2119     1535.117    2884.0756    314.55541     5255 
351000000   -3808.9647    691.87843    4645.2702     1611.222    2889.6211    311.74072     5251 
352000000   -3717.8362    647.40322    4604.8471    1533.7528    2831.4867    309.02796     5257 
353000000   -3802.1781    568.03223    4712.5218    1543.0852    2827.1252    316.25393     5252 
354000000   -3819.8311     641.6833    4584.3723    1554.7412    2906.7732    307.65391     5253 
355000000   -3722.3573    688.11513     4635.855    1554.2079    2856.2645    311.10888     5259 
356000000   -3758.4584    639.27116    4563.4192    1527.8232    2869.9063    306.24776     5262 
357000000   -3805.9152    677.94164    4619.4703    1570.1633    2913.6935    310.00931     5256 
358000000   -3783.3012    613.53482    4627.8632    1501.4918    2895.3442    310.57255     5243 
359000000   -3808.6845    653.78402    4690.2785    1595.8796     2866.589     314.7612     5250 
360000000   -3805.6779    561.34974    4648.0937    1530.9248    2836.1029    311.93021     5251 
361000000   -3813.4438    572.56898    4725.4054    1566.9223    2819.0905    317.11854     5251 
362000000    -3812.458    557.75576    4656.1679    1521.1828     2849.031    312.47206     5252 
363000000   -3841.8322    573.66655    4581.7889    1510.6915    2904.8073    307.48054     5253 
364000000   -3790.7509    542.43933    4659.1452    1548.4844    2784.7058    312.67186     5249 
365000000    -3769.153    592.56975    4567.0859    1522.1953    2839.5274    306.49383     5252 
366000000   -3809.6951    600.10502    4582.8647     1551.443    2858.3572    307.55274     5257 
367000000   -3798.8207    676.94343     4616.405    1627.0983    2848.6659    309.80361     5261 
368000000   -3755.0736    636.31107    4482.3114    1562.5267    2828.8579    300.80468     5254 
369000000   -3786.9453    633.59267    4553.6305    1575.6095    2844.9285    305.59085     5253 
370000000   -3847.5944    546.55034    4556.9178     1470.588    2923.5567    305.81146     5248 
371000000   -3777.9557    660.73427    4682.9245    1576.7705    2861.9195    314.26768     5255 
372000000   -3851.0023    548.10046    4652.7551    1549.9499    2849.1529    312.24303     5256 
373000000   -3815.4341    640.44619    4601.2473    1548.9523     2906.928    308.78638     5258 
374000000   -3879.9072    595.45552    4545.9174     1587.585    2887.7777    305.07323     5261 
375000000   -3731.1411    680.19073    4622.2616    1542.9506    2868.3812    310.19663     5252 
376000000   -3742.0986    678.73089    4674.6128    1592.7315     2828.098    313.70989     5258 
377000000   -3825.7858    725.71828    4611.0636     1568.768     2982.736    309.44515     5259 
378000000    -3721.498     738.4862    4627.3043    1523.7729    2936.2113    310.53505     5253 
379000000   -3793.5421    711.45434    4621.5722    1586.0142    2918.9823    310.15037     5251 
380000000   -3754.2302    642.89065    4556.0516    1540.4036    2856.7172    305.75333     5248 
381000000    -3813.442     606.3607    4572.3704     1533.106    2886.6967    306.84847     5257 
382000000   -3871.0955    563.58017    4616.7726    1579.9375    2854.7382    309.82828     5259 
383000000   -3789.7053    576.57584    4648.2936    1544.0876    2822.1935    311.94363     5255 
384000000   -3849.2848    586.94447    4603.9246    1552.4377    2883.7916    308.96605     5255 
385000000   -3793.6869    581.49246    4541.6889    1564.4345    2810.7449    304.78946     5257 
386000000   -3785.2276    679.29518    4642.6045    1575.4409    2889.0819    311.56183     5247 
387000000   -3755.6717    688.31783    4638.6046    1563.3705    2880.6191     311.2934     5252 
388000000   -3842.5062    588.51403    4478.2547    1577.2031     2853.817    300.53244     5246 
389000000   -3716.7886    640.93731    4589.8775    1543.5327    2814.1932    308.02336     5248 
390000000   -3752.3748    736.03458    4595.3053    1562.2006    2926.2088    308.38762     5261 
391000000    -3818.529     672.6514    4657.6554    1583.3077    2907.8727    312.57189     5252 
392000000   -3756.6223    715.75402    4657.1931    1591.0839    2881.2924    312.54086     5263 
393000000   -3806.8151    543.32573    4638.8876    1517.1531    2832.9877    311.31239     5251 
394000000   -3816.2969    614.66297    4636.7313    1544.2013    2886.7586    311.16768     5253 
395000000    -3777.667    732.83103    4622.1071     1631.038      2879.46    310.18627     5256 
396000000   -3840.1692    534.68939    4659.9664     1549.278    2825.5806    312.72698     5253 
397000000   -3878.1902    489.56542    4634.1083    1529.5154    2838.2402    310.99166     5252 
398000000   -3920.0555     578.1236    4581.6663    1570.9069    2927.2721    307.47231     5260 
399000000   -3806.6515    579.35469    4742.6774    1523.2585    2862.7477    318.27765     5254 
400000000   -3739.2993    611.03628    4518.3214    1572.0695    2778.2661    303.22128     5250 
Loop time of 27031.2 on 10 procs for 100000000 steps with 5000 atoms

Performance: 7990.768 ns/day, 0.003 hours/ns, 3699.430 timesteps/s
99.7% CPU use with 10 MPI tasks x no OpenMP threads

MPI task timing breakdown:
Section |  min time  |  avg time  |  max time  |%varavg| %total
---------------------------------------------------------------
Pair    | 9025.1     | 10412      | 11783      | 782.8 | 38.52
Bond    | 1586.2     | 1599.6     | 1619.8     |  26.9 |  5.92
Neigh   | 3675.2     | 3703       | 3723.3     |  25.2 | 13.70
Comm    | 5140.7     | 6633.3     | 8370.2     |1157.5 | 24.54
Output  | 0.55127    | 0.55141    | 0.5515     |   0.0 |  0.00
Modify  | 3691.7     | 3715.1     | 3731.9     |  20.9 | 13.74
Other   |            | 967.7      |            |       |  3.58

Nlocal:    500 ave 527 max 480 min
Histogram: 2 0 2 0 2 2 1 0 0 1
Nghost:    720.9 ave 938 max 627 min
Histogram: 3 3 2 0 0 0 0 0 0 2
Neighs:    9850.8 ave 11510 max 8339 min
Histogram: 1 1 1 1 1 3 0 0 1 1

Total # of neighbors = 98508
Ave neighs/atom = 19.7016
Ave special neighs/atom = 7.3104
Neighbor list builds = 5243815
Dangerous builds = 0
write_restart final_state_${fName}.restart
write_restart final_state_Run10_Relax_Es_3kT_Ens_05kT_input.restart
Total wall time: 7:30:31
