
units           real
boundary p p p
atom_style      full

read_restart final_state_Relax_Es_3kT_Ens_05kT.restart
WARNING: Restart file used different # of processors (../read_restart.cpp:740)
  restoring atom style full from restart
  orthogonal box = (-250 -250 -250) to (250 250 250)
  1 by 2 by 5 MPI processor grid
  restoring pair style lj/cut from restart
  restoring bond style harmonic from restart
  restoring angle style cosine from restart
  5000 atoms
  5251 bonds
  4600 angles
  3 = max # of 1-2 neighbors
  4 = max # of 1-3 neighbors
  8 = max # of 1-4 neighbors
  16 = max # of special neighbors
  special bonds CPU = 0.00820274 secs
  read_restart CPU = 0.173221 secs

neighbor 1.9 bin
neigh_modify every 1 delay 1 check yes

angle_style  cosine
angle_coeff   *  2  # K (energy unit)

bond_style      harmonic
# bond-type, K (energy/distance^2), R0 (distance)
bond_coeff   1   3   10
bond_coeff   2   3   10
bond_coeff   3   1.8   11.22

pair_style lj/cut 25
# atom-typ1, atom-typ2, energy-well, sigma (bead-diameter), cut-off (distance)
pair_coeff  * * 0.3 10 25

special_bonds lj  1 1 1 angle no

variable t equal step
variable steps equal 100000000
variable dt_thermo equal 1000000
variable dt_movie equal 1000000
variable dt_data equal 10000000

group rxnSites type 1 3
1000 atoms in group rxnSites

# fix ID group-ID(atom-types) bond/create Nevery itype jtype Rmin bondtype (prob values = fraction seed) (iparam maxbond newType)
fix bondc rxnSites bond/create/random 20 1 3 12.72 3 prob 1 ${seed} iparam 1 1 jparam 1 3
fix bondc rxnSites bond/create/random 20 1 3 12.72 3 prob 1 249216 iparam 1 1 jparam 1 3

# fix ID group-ID bond/break Nevery bondtype Rmax keyword values ...
fix bondbr rxnSites bond/break 20 3 12.72 prob 1 ${seed}
fix bondbr rxnSites bond/break 20 3 12.72 prob 1 249216

variable frmbnd equal f_bondc[2]
variable brkbnd equal f_bondbr[2]
fix saveBond all print ${dt_thermo} "$t ${frmbnd} ${brkbnd}" file BondData_${fName}.dat screen no
fix saveBond all print 1000000 "$t ${frmbnd} ${brkbnd}" file BondData_${fName}.dat screen no
fix saveBond all print 1000000 "$t ${frmbnd} ${brkbnd}" file BondData_Run2_Relax_Es_3kT_Ens_05kT_input.dat screen no

thermo_style    custom step epair pe ke ebond eangle temp bonds
thermo          ${dt_thermo}
thermo          1000000
fix saveThermo all print ${dt_thermo} "$t $(temp) $(ke) $(pe) $(epair) $(ebond) $(eangle) $(bonds)" file Thermo_${fName}.dat title "# Steps Temp KinEng PotEng Epair Ebond Eangle Bonds" screen no
fix saveThermo all print 1000000 "$t $(temp) $(ke) $(pe) $(epair) $(ebond) $(eangle) $(bonds)" file Thermo_${fName}.dat title "# Steps Temp KinEng PotEng Epair Ebond Eangle Bonds" screen no
fix saveThermo all print 1000000 "$t $(temp) $(ke) $(pe) $(epair) $(ebond) $(eangle) $(bonds)" file Thermo_Run2_Relax_Es_3kT_Ens_05kT_input.dat title "# Steps Temp KinEng PotEng Epair Ebond Eangle Bonds" screen no

############################ Langevin Dynamics ###############################
fix fxlan all langevin $T $T 500 ${seed}
fix fxlan all langevin 310 $T 500 ${seed}
fix fxlan all langevin 310 310 500 ${seed}
fix fxlan all langevin 310 310 500 249216
fix fxnve all nve

comm_style tiled
fix fxbal all balance 1000 1.1 rcb # load balance for spatially heterogeneous system

timestep 25

restart ${dt_data} ${fName}_tp_*.restart
restart 10000000 ${fName}_tp_*.restart
restart 10000000 Run2_Relax_Es_3kT_Ens_05kT_input_tp_*.restart
dump coor all custom ${dt_movie} traj_${fName}.dump id type mol mass x y z xu yu zu
dump coor all custom 1000000 traj_${fName}.dump id type mol mass x y z xu yu zu
dump coor all custom 1000000 traj_Run2_Relax_Es_3kT_Ens_05kT_input.dump id type mol mass x y z xu yu zu

run ${steps}
run 100000000
Neighbor list info ...
  update every 1 steps, delay 1 steps, check yes
  max neighbors/atom: 2000, page size: 100000
  master list distance cutoff = 26.9
  ghost atom cutoff = 26.9
  binsize = 13.45, bins = 38 38 38
  2 neighbor lists, perpetual/occasional/extra = 1 1 0
  (1) pair lj/cut, perpetual
      attributes: half, newton on
      pair build: half/bin/newton
      stencil: half/bin/3d/newton
      bin: standard
  (2) fix bond/create/random, occasional, copy from (1)
      attributes: half, newton on
      pair build: copy
      stencil: none
      bin: none
WARNING: Inconsistent image flags (../domain.cpp:784)
Per MPI rank memory allocation (min/avg/max) = 10.27 | 10.6 | 11.19 Mbytes
Step E_pair PotEng KinEng E_bond E_angle Temp Bonds 
300000000   -3808.4485    609.18774    4693.9222     1538.457    2879.1792    315.00573     5251 
301000000   -3706.4991    720.30844    4624.2061    1584.4409    2842.3667    310.32713     5257 
302000000   -3704.6896    724.99589    4718.7229    1560.4277    2869.2578    316.67008     5250 
303000000   -3751.7691    656.74056    4590.3837    1619.0564    2789.4533    308.05733     5252 
304000000   -3750.0433    621.78437    4572.0253    1538.3519    2833.4758    306.82531     5245 
305000000   -3879.2702     526.4616    4716.0793    1545.9648     2859.767    316.49267     5257 
306000000   -3770.3579    569.99453    4561.9021    1506.4749    2833.8775    306.14595     5259 
307000000   -3749.1946    637.26853    4625.6604    1547.0804    2839.3827    310.42473     5252 
308000000   -3801.5946    588.05854    4682.6783    1558.7034    2830.9498    314.25116     5245 
309000000   -3817.8223    543.70218    4641.0744    1548.5209    2813.0035    311.45915     5258 
310000000   -3863.5908    557.75237    4594.5121    1552.5957    2868.7475    308.33438     5255 
311000000   -3713.3442    728.50644    4578.0366    1572.0298    2869.8208    307.22873     5262 
312000000   -3745.6531    638.42785    4641.1288    1543.4112    2840.6697     311.4628     5258 
313000000   -3821.1436    573.53882    4626.4362    1547.6329    2847.0495    310.47679     5257 
314000000   -3733.1941    558.28568    4631.2277     1513.679    2777.8008    310.79834     5253 
315000000   -3766.9307    567.41561    4589.9598    1523.0327    2811.3136    308.02889     5258 
316000000   -3781.2269    622.51162    4624.1601    1596.8995     2806.839    310.32404     5255 
317000000   -3834.4078    556.46696    4620.2425    1563.3639    2827.5108    310.06114     5256 
318000000   -3755.8488    619.90414    4605.8363    1548.8727    2826.8802    309.09434     5255 
319000000   -3894.9405    535.74496    4622.7908    1560.0016    2870.6839    310.23215     5254 
320000000   -3715.8089    649.69903    4507.3618    1510.6979      2854.81    302.48579     5259 
321000000   -3802.5516     605.5472    4616.4813    1553.7818     2854.317    309.80872     5262 
322000000   -3739.2957    598.68716    4739.8283    1484.0539     2853.929    318.08645     5265 
323000000   -3808.9939    589.60658    4685.2573    1588.1512    2810.4494    314.42423     5253 
324000000   -3807.8717    563.04103    4642.1898    1546.4889    2824.4239      311.534     5256 
325000000   -3763.6295    610.77262    4629.0291    1600.1977    2774.2044    310.65079     5259 
326000000   -3778.8158    552.52305    4623.5929    1507.6561    2823.6828    310.28598     5258 
327000000   -3801.0846    658.54186    4585.5741    1572.2608    2887.3657    307.73456     5256 
328000000   -3769.0559    645.38311    4632.8661    1572.3772    2842.0618     310.9083     5255 
329000000   -3762.5837    619.99935    4600.1099    1530.7046    2851.8784    308.71005     5261 
330000000   -3752.9773    571.02926    4663.6111    1525.1334    2798.8731    312.97157     5254 
331000000   -3796.7347    634.97666    4622.6064    1566.8748    2864.8366    310.21978     5253 
332000000   -3757.8035    593.74158    4636.2368     1552.069    2799.4761     311.1345     5257 
333000000   -3737.9022     718.5998    4595.0657    1541.4048    2915.0972    308.37154     5260 
334000000   -3822.1968    569.09055    4582.8294    1552.4298    2838.8575    307.55037     5262 
335000000     -3884.07    519.28849    4638.1343    1593.0009    2810.3576    311.26184     5254 
336000000   -3835.6007    545.53745    4570.1313    1533.8842     2847.254    306.69821     5257 
337000000   -3814.6668     554.4525    4588.1712    1528.9004    2840.2189    307.90885     5255 
338000000   -3689.0771    777.28897    4593.2161    1531.6627    2934.7035    308.24742     5251 
339000000   -3783.3513    640.61804    4487.5181    1512.7063     2911.263     301.1541     5253 
340000000   -3755.1279    776.13696    4658.9995    1612.1225    2919.1423    312.66209     5251 
341000000   -3740.0693    655.28996    4483.0668    1545.3168    2850.0425    300.85537     5256 
342000000   -3842.3277    552.85408    4607.4877    1506.9188    2888.2629    309.20517     5254 
343000000   -3677.3812    742.38799      4613.44    1539.7039    2880.0653    309.60462     5258 
344000000   -3856.6068    507.66774    4565.9991    1543.1456     2821.129     306.4209     5261 
345000000   -3725.3183    629.27252     4563.508    1519.5896    2835.0013    306.25372     5249 
346000000   -3824.5302    629.69798    4623.7349    1571.1612     2883.067    310.29551     5258 
347000000   -3795.5893    626.14466    4642.3415    1542.9408    2878.7932    311.54418     5255 
348000000   -3683.0061    743.28964      4573.77     1565.575    2860.7207     306.9424     5259 
349000000   -3724.7942     620.9002    4563.7374     1543.342    2802.3524    306.26912     5252 
350000000   -3703.7184    712.14582    4611.7802    1539.5896    2876.2747    309.49323     5260 
351000000   -3795.2886    469.50287    4529.2586    1531.7786    2733.0129    303.95527     5258 
352000000   -3783.7034    618.71354     4767.292    1586.6125    2815.8044    319.92952     5253 
353000000   -3809.7261    572.68248    4595.4507    1544.8063    2837.6023    308.39737     5257 
354000000   -3773.2696    654.95816    4687.6097    1585.1387    2843.0891     314.5821     5263 
355000000   -3778.3832    643.85222    4706.3047    1548.3649    2873.8705    315.83671     5253 
356000000   -3769.2746    712.25025    4607.9545    1577.8215    2903.7034     309.2365     5253 
357000000   -3710.7572    665.87651    4627.1438    1536.6297     2840.004    310.52428     5260 
358000000   -3826.0279    669.73926    4621.0291    1582.1416    2913.6255    310.11392     5254 
359000000   -3754.2384    618.83005    4651.7827     1523.014    2850.0545    312.17777     5254 
360000000   -3822.7431    717.28797    4571.2564    1621.2246    2918.8064    306.77371     5260 
361000000   -3899.0703    464.81051    4577.7443    1544.9296    2818.9512    307.20911     5261 
362000000   -3760.2569    592.02037     4582.014    1575.3431    2776.9342    307.49565     5262 
363000000   -3800.9444    570.86243    4675.8256    1515.2667    2856.5401    313.79128     5264 
364000000   -3899.0388    513.14631    4663.1103    1570.3543    2841.8308    312.93796     5247 
365000000   -3702.8467    728.22371    4633.9512    1553.9875    2877.0829    310.98112     5251 
366000000   -3786.8353    617.32901    4624.8067    1510.5987    2893.5656    310.36743     5248 
367000000    -3757.097    639.88013    4727.9987    1566.7953    2830.1818    317.29257     5256 
368000000   -3801.1262    658.10552    4651.0467    1563.3997    2895.8321    312.12838     5255 
369000000   -3826.9795    636.94281    4618.5297    1519.1225    2944.7998    309.94619     5264 
370000000    -3806.812    666.51417    4618.2155    1574.7813    2898.5449     309.9251     5250 
371000000   -3723.6349    723.41303    4696.7824    1550.5211    2896.5268    315.19767     5256 
372000000   -3782.0296     654.4204    4632.2914    1568.4659    2867.9841    310.86973     5254 
373000000   -3745.4631    669.07141    4591.9672    1559.8664    2854.6681     308.1636     5257 
374000000   -3755.7311    636.27227     4660.449    1520.0443    2871.9591    312.75936     5253 
375000000   -3815.2322    557.45889    4697.6324    1511.7033    2860.9878    315.25471     5256 
376000000   -3844.1217    498.09179     4549.311    1525.2702    2816.9432    305.30097     5246 
377000000    -3831.414    604.99825    4562.6312    1562.2211    2874.1911    306.19488     5255 
378000000   -3794.8074    562.43631    4590.4207    1534.8169    2822.4267    308.05982     5255 
379000000   -3736.2836    627.84938    4618.9313    1553.6603    2810.4727    309.97314     5252 
380000000   -3855.0662    593.00277    4694.4717    1575.2502    2872.8187    315.04261     5258 
381000000    -3764.339    652.63063    4512.4441    1556.7186     2860.251    302.82686     5259 
382000000    -3824.325    597.34415     4625.498    1548.1945    2873.4746    310.41383     5248 
383000000    -3786.115    531.66494     4642.334    1466.5472    2851.2327    311.54368     5253 
384000000   -3754.4888    630.90608    4569.2524    1595.7721    2789.6228    306.63922     5252 
385000000   -3792.4077    615.89032    4665.2508    1496.0877    2912.2103    313.08161     5252 
386000000   -3800.5989    589.71251    4632.8918    1543.1623    2847.1491    310.91002     5256 
387000000   -3790.8397    550.82047     4549.082    1503.6458    2838.0144     305.2856     5260 
388000000   -3804.9631    685.90827      4526.01    1578.6853    2912.1861    303.73726     5254 
389000000    -3746.445    710.80488    4663.9219    1590.0563    2867.1937    312.99243     5259 
390000000   -3811.0889    592.14008    4611.3964    1534.9672    2868.2618    309.46748     5265 
391000000   -3763.3638    577.73015    4679.4448    1547.6075    2793.4865    314.03416     5257 
392000000   -3819.3151    561.72889    4573.6634    1560.5581    2820.4859    306.93525     5256 
393000000   -3866.0656    558.48425    4626.6381    1572.0351    2852.5147    310.49034     5255 
394000000     -3851.62     523.3957    4629.9917    1545.5682    2829.4475     310.7154     5252 
395000000   -3824.8471    549.01463    4579.5646     1551.578    2822.2837    307.33127     5259 
396000000   -3852.3768    534.18816     4636.228    1528.1963    2858.3686    311.13391     5259 
397000000   -3836.2504    602.39007    4560.0796    1578.4711    2860.1694    306.02365     5260 
398000000   -3701.9659    789.19948    4646.5619    1553.6411    2937.5243    311.82741     5254 
399000000   -3815.0071     557.4738    4681.2272    1513.0186    2859.4623    314.15377     5268 
400000000   -3767.5546    650.58224    4612.3616    1611.9203    2806.2165    309.53225     5258 
Loop time of 26758.2 on 10 procs for 100000000 steps with 5000 atoms

Performance: 8072.280 ns/day, 0.003 hours/ns, 3737.167 timesteps/s
99.6% CPU use with 10 MPI tasks x no OpenMP threads

MPI task timing breakdown:
Section |  min time  |  avg time  |  max time  |%varavg| %total
---------------------------------------------------------------
Pair    | 9153.1     | 10373      | 11666      | 697.4 | 38.77
Bond    | 1581.6     | 1602.5     | 1622.9     |  27.6 |  5.99
Neigh   | 3662.7     | 3680.9     | 3701.2     |  18.0 | 13.76
Comm    | 5018       | 6461.3     | 7981       |1075.2 | 24.15
Output  | 0.54111    | 0.54123    | 0.54139    |   0.0 |  0.00
Modify  | 3639.3     | 3674.8     | 3695.2     |  29.9 | 13.73
Other   |            | 965        |            |       |  3.61

Nlocal:    500 ave 520 max 463 min
Histogram: 1 0 0 2 0 0 1 2 3 1
Nghost:    741 ave 955 max 545 min
Histogram: 1 0 2 1 1 3 0 1 0 1
Neighs:    9970.1 ave 11695 max 7881 min
Histogram: 1 0 1 0 3 1 0 1 2 1

Total # of neighbors = 99701
Ave neighs/atom = 19.9402
Ave special neighs/atom = 7.3316
Neighbor list builds = 5246573
Dangerous builds = 0
write_restart final_state_${fName}.restart
write_restart final_state_Run2_Relax_Es_3kT_Ens_05kT_input.restart
Total wall time: 7:25:58
