
units           real
boundary p p p
atom_style      full

read_restart final_state_Relax_Es_3kT_Ens_05kT.restart
WARNING: Restart file used different # of processors (../read_restart.cpp:740)
  restoring atom style full from restart
  orthogonal box = (-250 -250 -250) to (250 250 250)
  1 by 2 by 5 MPI processor grid
  restoring pair style lj/cut from restart
  restoring bond style harmonic from restart
  restoring angle style cosine from restart
  5000 atoms
  5251 bonds
  4600 angles
  3 = max # of 1-2 neighbors
  4 = max # of 1-3 neighbors
  8 = max # of 1-4 neighbors
  16 = max # of special neighbors
  special bonds CPU = 0.00763399 secs
  read_restart CPU = 0.153869 secs

neighbor 1.9 bin
neigh_modify every 1 delay 1 check yes

angle_style  cosine
angle_coeff   *  2  # K (energy unit)

bond_style      harmonic
# bond-type, K (energy/distance^2), R0 (distance)
bond_coeff   1   3   10
bond_coeff   2   3   10
bond_coeff   3   1.8   11.22

pair_style lj/cut 25
# atom-typ1, atom-typ2, energy-well, sigma (bead-diameter), cut-off (distance)
pair_coeff  * * 0.3 10 25

special_bonds lj  1 1 1 angle no

variable t equal step
variable steps equal 100000000
variable dt_thermo equal 1000000
variable dt_movie equal 1000000
variable dt_data equal 10000000

group rxnSites type 1 3
1000 atoms in group rxnSites

# fix ID group-ID(atom-types) bond/create Nevery itype jtype Rmin bondtype (prob values = fraction seed) (iparam maxbond newType)
fix bondc rxnSites bond/create/random 20 1 3 12.72 3 prob 1 ${seed} iparam 1 1 jparam 1 3
fix bondc rxnSites bond/create/random 20 1 3 12.72 3 prob 1 472344 iparam 1 1 jparam 1 3

# fix ID group-ID bond/break Nevery bondtype Rmax keyword values ...
fix bondbr rxnSites bond/break 20 3 12.72 prob 1 ${seed}
fix bondbr rxnSites bond/break 20 3 12.72 prob 1 472344

variable frmbnd equal f_bondc[2]
variable brkbnd equal f_bondbr[2]
fix saveBond all print ${dt_thermo} "$t ${frmbnd} ${brkbnd}" file BondData_${fName}.dat screen no
fix saveBond all print 1000000 "$t ${frmbnd} ${brkbnd}" file BondData_${fName}.dat screen no
fix saveBond all print 1000000 "$t ${frmbnd} ${brkbnd}" file BondData_Run4_Relax_Es_3kT_Ens_05kT_input.dat screen no

thermo_style    custom step epair pe ke ebond eangle temp bonds
thermo          ${dt_thermo}
thermo          1000000
fix saveThermo all print ${dt_thermo} "$t $(temp) $(ke) $(pe) $(epair) $(ebond) $(eangle) $(bonds)" file Thermo_${fName}.dat title "# Steps Temp KinEng PotEng Epair Ebond Eangle Bonds" screen no
fix saveThermo all print 1000000 "$t $(temp) $(ke) $(pe) $(epair) $(ebond) $(eangle) $(bonds)" file Thermo_${fName}.dat title "# Steps Temp KinEng PotEng Epair Ebond Eangle Bonds" screen no
fix saveThermo all print 1000000 "$t $(temp) $(ke) $(pe) $(epair) $(ebond) $(eangle) $(bonds)" file Thermo_Run4_Relax_Es_3kT_Ens_05kT_input.dat title "# Steps Temp KinEng PotEng Epair Ebond Eangle Bonds" screen no

############################ Langevin Dynamics ###############################
fix fxlan all langevin $T $T 500 ${seed}
fix fxlan all langevin 310 $T 500 ${seed}
fix fxlan all langevin 310 310 500 ${seed}
fix fxlan all langevin 310 310 500 472344
fix fxnve all nve

comm_style tiled
fix fxbal all balance 1000 1.1 rcb # load balance for spatially heterogeneous system

timestep 25

restart ${dt_data} ${fName}_tp_*.restart
restart 10000000 ${fName}_tp_*.restart
restart 10000000 Run4_Relax_Es_3kT_Ens_05kT_input_tp_*.restart
dump coor all custom ${dt_movie} traj_${fName}.dump id type mol mass x y z xu yu zu
dump coor all custom 1000000 traj_${fName}.dump id type mol mass x y z xu yu zu
dump coor all custom 1000000 traj_Run4_Relax_Es_3kT_Ens_05kT_input.dump id type mol mass x y z xu yu zu

run ${steps}
run 100000000
Neighbor list info ...
  update every 1 steps, delay 1 steps, check yes
  max neighbors/atom: 2000, page size: 100000
  master list distance cutoff = 26.9
  ghost atom cutoff = 26.9
  binsize = 13.45, bins = 38 38 38
  2 neighbor lists, perpetual/occasional/extra = 1 1 0
  (1) pair lj/cut, perpetual
      attributes: half, newton on
      pair build: half/bin/newton
      stencil: half/bin/3d/newton
      bin: standard
  (2) fix bond/create/random, occasional, copy from (1)
      attributes: half, newton on
      pair build: copy
      stencil: none
      bin: none
WARNING: Inconsistent image flags (../domain.cpp:784)
Per MPI rank memory allocation (min/avg/max) = 10.27 | 10.6 | 11.19 Mbytes
Step E_pair PotEng KinEng E_bond E_angle Temp Bonds 
300000000   -3808.4485    609.18774    4693.9222     1538.457    2879.1792    315.00573     5251 
301000000   -3831.0704    548.48409    4612.8182    1541.6326    2837.9218     309.5629     5251 
302000000   -3771.9978    572.89426    4592.6207    1522.5163    2822.3758    308.20745     5256 
303000000   -3728.3153    629.92981    4527.8341    1542.9672    2815.2779    303.85967     5253 
304000000   -3807.0958    558.32089    4680.7127    1547.7488    2817.6678    314.11925     5258 
305000000   -3772.6819    628.70569    4659.2793    1561.4598    2839.9278    312.68087     5256 
306000000   -3767.3552    588.62416    4642.1664    1530.0469    2825.9324    311.53243     5250 
307000000   -3865.8556    502.36321    4612.2119    1511.0488      2857.17    309.52221     5251 
308000000   -3757.9327    624.85703    4626.1934    1520.8981    2861.8916    310.46049     5247 
309000000   -3736.9053    655.85912    4659.5492    1538.8056    2853.9588    312.69898     5259 
310000000   -3830.3737    534.10414    4607.9678    1544.8193    2819.6585    309.23739     5247 
311000000   -3906.9025    482.36944    4625.8891    1571.6595    2817.6125    310.44007     5256 
312000000   -3852.1364    539.24684    4754.5983    1618.0178    2773.3654    319.07765     5256 
313000000   -3859.9459     579.8471    4625.1231    1597.1277    2842.6653    310.38867     5262 
314000000   -3840.0264    603.86839    4646.6657    1554.1987    2889.6961    311.83438     5255 
315000000   -3821.3336    612.00282    4723.4746    1584.2197    2849.1167    316.98897     5256 
316000000   -3844.9809    563.48414    4658.7487    1587.7101    2820.7549    312.64526     5254 
317000000   -3713.8419    636.45427    4674.8414    1574.4987    2775.7974    313.72523     5258 
318000000      -3761.9    504.48759     4565.652      1513.01    2753.3776    306.39761     5259 
319000000    -3861.121    554.49344    4632.7734    1582.8816    2832.7328    310.90208     5260 
320000000   -3806.2295    662.94114    4654.0916     1584.508    2884.6626    312.33272     5258 
321000000   -3789.1472    588.15821    4639.5823    1537.3696    2839.9358    311.35902     5258 
322000000   -3813.4434    596.55529    4570.3335    1536.9246    2873.0741    306.71178     5260 
323000000   -3775.8216    588.58032    4627.6797    1538.4799     2825.922    310.56024     5254 
324000000   -3724.4154    666.56261    4572.9249    1571.5821    2819.3958    306.88569     5245 
325000000   -3777.2782    689.02079     4622.703    1560.8416    2905.4574    310.22626     5248 
326000000    -3861.444    520.55323     4622.369    1565.1893    2816.8079    310.20384     5252 
327000000   -3935.7694    491.18536    4658.2388    1530.3953    2896.5595    312.61104     5254 
328000000   -3748.9027    643.27193     4676.792    1524.4237    2867.7509    313.85613     5260 
329000000   -3739.4186    562.80506    4644.0464    1510.2359    2791.9877    311.65859     5247 
330000000   -3722.2153    740.32571    4600.0761    1557.2351    2905.3059    308.70778     5245 
331000000   -3815.5498    617.48333    4642.4541    1519.5235    2913.5096    311.55174     5254 
332000000    -3789.713    625.05736    4632.6278    1583.2136    2831.5567    310.89231     5257 
333000000   -3715.7768    705.58052    4670.4577    1546.0692    2875.2882    313.43104     5248 
334000000   -3880.8644    568.68226    4533.6492     1553.621    2895.9256    304.24992     5257 
335000000   -3853.5377    507.90028    4659.4601    1519.1603    2842.2777      312.693     5255 
336000000   -3752.5582    603.95243    4600.5486    1521.5769    2834.9338    308.73949     5260 
337000000    -3755.839    594.61345    4588.8415    1518.5034    2831.9491    307.95383     5241 
338000000   -3754.0763    660.13226    4610.4951    1580.9132    2833.2954    309.40699     5248 
339000000    -3809.846    574.01032     4579.395    1497.8949    2885.9614    307.31989     5258 
340000000    -3725.868    744.53799    4622.8787    1657.9161    2812.4899    310.23805     5251 
341000000    -3849.835    555.61611    4605.0264     1530.953     2874.498    309.03999     5252 
342000000    -3771.658    480.54811    4643.0933    1508.8141    2743.3921    311.59464     5252 
343000000   -3832.9508    529.41241    4597.9324    1531.0433    2831.3199    308.56392     5257 
344000000   -3879.3181    566.37078    4621.5476    1576.6074    2869.0815    310.14872     5245 
345000000   -3768.2439    657.89797    4594.5751    1551.0479    2875.0939    308.33861     5259 
346000000   -3748.8779    650.44335    4591.4565    1550.7214    2848.5999    308.12932     5257 
347000000   -3866.3597    578.54704    4537.4009    1560.9927    2883.9141    304.50169     5256 
348000000   -3794.9729    699.79435    4551.3496    1595.5125    2899.2548    305.43778     5251 
349000000   -3839.7746    556.92375    4659.1276    1513.2682    2883.4302    312.67069     5252 
350000000   -3821.4041    564.94718    4662.2605    1522.0561    2864.2953    312.88093     5259 
351000000   -3698.0156    728.61125    4659.5561    1545.8079     2880.819    312.69944     5250 
352000000   -3808.9733    588.32957    4578.5484    1524.2028       2873.1    307.26307     5254 
353000000   -3787.3912    606.13474    4676.9433    1545.8031    2847.7228    313.86628     5252 
354000000   -3752.4847    602.91285    4524.2741    1559.4799    2795.9177    303.62077     5254 
355000000   -3779.2117    583.55363    4604.7271    1565.8475    2796.9179    309.01991     5253 
356000000   -3696.0295     765.2313    4685.2542    1565.1798    2896.0811    314.42402     5251 
357000000   -3797.2274    613.87945    4579.3063    1510.9506    2900.1563    307.31394     5258 
358000000   -3831.6921    627.65285     4635.142    1573.0922    2886.2528    311.06103     5261 
359000000    -3866.269    561.72274    4697.4781    1559.4479    2868.5438    315.24436     5255 
360000000   -3811.7154    634.92427    4702.4401    1522.9373    2923.7023    315.57736     5257 
361000000   -3840.9447    621.66785    4561.3435    1589.5024    2873.1101    306.10847     5260 
362000000   -3714.5726    717.15355     4686.212    1579.5366    2852.1896     314.4883     5254 
363000000   -3819.0802    611.59274    4683.9265    1576.9814    2853.6915    314.33492     5258 
364000000   -3656.4431    816.88495    4595.3613    1571.8308    2901.4972    308.39137     5250 
365000000   -3739.3676     734.1694    4707.1927    1582.7928    2890.7442     315.8963     5256 
366000000      -3760.3    690.02246    4675.0366    1590.3096    2860.0129    313.73833     5250 
367000000   -3811.8979    493.66352    4714.8179    1517.3197    2788.2417    316.40802     5256 
368000000   -3847.9166    587.05079    4639.3964    1584.7084     2850.259    311.34654     5252 
369000000   -3749.3398    650.61303    4637.5934    1585.3147    2814.6381    311.22554     5249 
370000000   -3721.7205    669.05227    4623.0906      1597.05    2793.7228    310.25227     5259 
371000000   -3775.5205    507.27079    4616.8255    1536.8692    2745.9221    309.83183     5255 
372000000   -3885.2686    447.97822    4728.5803    1531.7767    2801.4701     317.3316     5262 
373000000   -3760.6403    567.18535    4614.8869    1536.1119    2791.7137    309.70173     5251 
374000000   -3854.7194    590.12165    4517.9372    1568.2815    2876.5595     303.1955     5254 
375000000   -3782.4984    576.68122     4688.762    1548.3269    2810.8527    314.65943     5259 
376000000   -3931.9969    455.55495    4636.2899    1541.7117    2845.8402    311.13806     5258 
377000000   -3806.2008    613.26018    4663.6277     1546.926     2872.535    312.97268     5257 
378000000   -3867.6669    577.23294    4647.4273     1580.904    2863.9958    311.88549     5255 
379000000   -3786.3797    565.20628    4633.6249    1559.1104    2792.4756    310.95922     5253 
380000000    -3699.788    705.24989    4688.6116    1577.4469    2827.5909    314.64933     5250 
381000000   -3777.2516    695.08109    4608.5256    1564.5212    2907.8115    309.27483     5264 
382000000    -3738.693    627.38809     4634.634    1546.4166    2819.6645    311.02694     5257 
383000000   -3783.4492    674.31744    4607.1315    1568.6819    2889.0847    309.18126     5254 
384000000    -3801.349    673.31772    4629.0749    1592.8842    2881.7825    310.65387     5261 
385000000   -3772.7019    680.47092    4696.3185    1543.3281    2909.8447    315.16654     5264 
386000000   -3784.5587    587.56597    4600.7452    1517.6623    2854.4623    308.75269     5254 
387000000   -3793.6948    607.77723    4665.1274    1559.9217    2841.5503    313.07333     5253 
388000000   -3773.8711    589.37743     4683.631    1493.6264    2869.6222    314.31509     5259 
389000000   -3788.1719    554.11436    4586.8053     1532.589    2809.6973    307.81719     5257 
390000000   -3763.2417    656.50952    4550.5635    1561.9341    2857.8172    305.38503     5262 
391000000   -3822.9658    613.80654    4710.8921    1538.4634     2898.309    316.14456     5258 
392000000   -3769.5637    620.78302    4660.6011    1538.3084    2852.0383    312.76957     5257 
393000000   -3753.9107    714.03174    4620.9129    1587.3425    2880.5999    310.10613     5258 
394000000   -3791.6232    545.56228    4608.7914    1507.5853    2829.6002    309.29266     5259 
395000000   -3744.6334     660.4399    4673.5397    1581.5134    2823.5598    313.63787     5255 
396000000   -3815.8399    563.16337     4711.528    1532.9416    2846.0617    316.18724     5255 
397000000   -3770.6282    691.23523      4570.35    1587.0627    2874.8008    306.71288     5259 
398000000   -3807.6739     565.4555    4564.9165    1520.6817    2852.4476    306.34825     5257 
399000000   -3777.2239    625.32447    4621.4102    1525.3501    2877.1983     310.1395     5254 
400000000   -3727.2298    637.09827    4627.5328    1558.5587    2805.7694    310.55038     5244 
Loop time of 28935.6 on 10 procs for 100000000 steps with 5000 atoms

Performance: 7464.859 ns/day, 0.003 hours/ns, 3455.953 timesteps/s
99.5% CPU use with 10 MPI tasks x no OpenMP threads

MPI task timing breakdown:
Section |  min time  |  avg time  |  max time  |%varavg| %total
---------------------------------------------------------------
Pair    | 8953.1     | 10525      | 11984      | 893.1 | 36.38
Bond    | 1565.5     | 1662.4     | 1944.7     | 246.8 |  5.75
Neigh   | 3776.6     | 3806.4     | 3835.7     |  30.7 | 13.15
Comm    | 6241.9     | 7808.3     | 9880.7     |1265.0 | 26.99
Output  | 0.56537    | 0.56554    | 0.56566    |   0.0 |  0.00
Modify  | 3922       | 4034       | 4118.8     |  98.1 | 13.94
Other   |            | 1099       |            |       |  3.80

Nlocal:    500 ave 524 max 452 min
Histogram: 1 0 0 1 0 0 2 1 4 1
Nghost:    712.4 ave 970 max 550 min
Histogram: 1 0 4 2 1 0 0 0 1 1
Neighs:    9866.6 ave 11496 max 8387 min
Histogram: 1 0 2 1 2 1 1 0 1 1

Total # of neighbors = 98666
Ave neighs/atom = 19.7332
Ave special neighs/atom = 7.2856
Neighbor list builds = 5245574
Dangerous builds = 0
write_restart final_state_${fName}.restart
write_restart final_state_Run4_Relax_Es_3kT_Ens_05kT_input.restart
Total wall time: 8:02:16
