
units           real
boundary p p p
atom_style      full

read_restart final_state_Relax_Es_3kT_Ens_05kT.restart
WARNING: Restart file used different # of processors (../read_restart.cpp:740)
  restoring atom style full from restart
  orthogonal box = (-250 -250 -250) to (250 250 250)
  1 by 2 by 5 MPI processor grid
  restoring pair style lj/cut from restart
  restoring bond style harmonic from restart
  restoring angle style cosine from restart
  5000 atoms
  5251 bonds
  4600 angles
  3 = max # of 1-2 neighbors
  4 = max # of 1-3 neighbors
  8 = max # of 1-4 neighbors
  16 = max # of special neighbors
  special bonds CPU = 0.0109037 secs
  read_restart CPU = 0.21842 secs

neighbor 1.9 bin
neigh_modify every 1 delay 1 check yes

angle_style  cosine
angle_coeff   *  2  # K (energy unit)

bond_style      harmonic
# bond-type, K (energy/distance^2), R0 (distance)
bond_coeff   1   3   10
bond_coeff   2   3   10
bond_coeff   3   1.8   11.22

pair_style lj/cut 25
# atom-typ1, atom-typ2, energy-well, sigma (bead-diameter), cut-off (distance)
pair_coeff  * * 0.3 10 25

special_bonds lj  1 1 1 angle no

variable t equal step
variable steps equal 100000000
variable dt_thermo equal 1000000
variable dt_movie equal 1000000
variable dt_data equal 10000000

group rxnSites type 1 3
1000 atoms in group rxnSites

# fix ID group-ID(atom-types) bond/create Nevery itype jtype Rmin bondtype (prob values = fraction seed) (iparam maxbond newType)
fix bondc rxnSites bond/create/random 20 1 3 12.72 3 prob 1 ${seed} iparam 1 1 jparam 1 3
fix bondc rxnSites bond/create/random 20 1 3 12.72 3 prob 1 443879 iparam 1 1 jparam 1 3

# fix ID group-ID bond/break Nevery bondtype Rmax keyword values ...
fix bondbr rxnSites bond/break 20 3 12.72 prob 1 ${seed}
fix bondbr rxnSites bond/break 20 3 12.72 prob 1 443879

variable frmbnd equal f_bondc[2]
variable brkbnd equal f_bondbr[2]
fix saveBond all print ${dt_thermo} "$t ${frmbnd} ${brkbnd}" file BondData_${fName}.dat screen no
fix saveBond all print 1000000 "$t ${frmbnd} ${brkbnd}" file BondData_${fName}.dat screen no
fix saveBond all print 1000000 "$t ${frmbnd} ${brkbnd}" file BondData_Run5_Relax_Es_3kT_Ens_05kT_input.dat screen no

thermo_style    custom step epair pe ke ebond eangle temp bonds
thermo          ${dt_thermo}
thermo          1000000
fix saveThermo all print ${dt_thermo} "$t $(temp) $(ke) $(pe) $(epair) $(ebond) $(eangle) $(bonds)" file Thermo_${fName}.dat title "# Steps Temp KinEng PotEng Epair Ebond Eangle Bonds" screen no
fix saveThermo all print 1000000 "$t $(temp) $(ke) $(pe) $(epair) $(ebond) $(eangle) $(bonds)" file Thermo_${fName}.dat title "# Steps Temp KinEng PotEng Epair Ebond Eangle Bonds" screen no
fix saveThermo all print 1000000 "$t $(temp) $(ke) $(pe) $(epair) $(ebond) $(eangle) $(bonds)" file Thermo_Run5_Relax_Es_3kT_Ens_05kT_input.dat title "# Steps Temp KinEng PotEng Epair Ebond Eangle Bonds" screen no

############################ Langevin Dynamics ###############################
fix fxlan all langevin $T $T 500 ${seed}
fix fxlan all langevin 310 $T 500 ${seed}
fix fxlan all langevin 310 310 500 ${seed}
fix fxlan all langevin 310 310 500 443879
fix fxnve all nve

comm_style tiled
fix fxbal all balance 1000 1.1 rcb # load balance for spatially heterogeneous system

timestep 25

restart ${dt_data} ${fName}_tp_*.restart
restart 10000000 ${fName}_tp_*.restart
restart 10000000 Run5_Relax_Es_3kT_Ens_05kT_input_tp_*.restart
dump coor all custom ${dt_movie} traj_${fName}.dump id type mol mass x y z xu yu zu
dump coor all custom 1000000 traj_${fName}.dump id type mol mass x y z xu yu zu
dump coor all custom 1000000 traj_Run5_Relax_Es_3kT_Ens_05kT_input.dump id type mol mass x y z xu yu zu

run ${steps}
run 100000000
Neighbor list info ...
  update every 1 steps, delay 1 steps, check yes
  max neighbors/atom: 2000, page size: 100000
  master list distance cutoff = 26.9
  ghost atom cutoff = 26.9
  binsize = 13.45, bins = 38 38 38
  2 neighbor lists, perpetual/occasional/extra = 1 1 0
  (1) pair lj/cut, perpetual
      attributes: half, newton on
      pair build: half/bin/newton
      stencil: half/bin/3d/newton
      bin: standard
  (2) fix bond/create/random, occasional, copy from (1)
      attributes: half, newton on
      pair build: copy
      stencil: none
      bin: none
WARNING: Inconsistent image flags (../domain.cpp:784)
Per MPI rank memory allocation (min/avg/max) = 10.27 | 10.6 | 11.19 Mbytes
Step E_pair PotEng KinEng E_bond E_angle Temp Bonds 
300000000   -3808.4485    609.18774    4693.9222     1538.457    2879.1792    315.00573     5251 
301000000    -3801.643    632.00037    4654.4236    1553.6376    2880.0058      312.355     5261 
302000000   -3865.1247    565.26022    4621.0794    1534.0639    2896.3211     310.1173     5258 
303000000   -3819.8544    612.16544    4540.0003    1555.0988    2876.9211    304.67614     5242 
304000000   -3829.9327    488.29295    4640.0784    1492.2526     2825.973    311.39231     5258 
305000000   -3787.7136     648.2232    4635.3553     1590.761    2845.1757    311.07534     5254 
306000000    -3735.629    678.74671    4622.7331    1559.8063    2854.5694    310.22828     5257 
307000000   -3795.9403    515.51062    4563.6992    1519.8498    2791.6012    306.26655     5260 
308000000   -3785.2103     588.7154    4662.2192    1513.6603    2860.2654    312.87816     5247 
309000000   -3800.4057    541.72795    4613.8377     1521.756    2820.3776    309.63131     5252 
310000000   -3775.9767    610.11257    4607.8169    1540.4626    2845.6266    309.22726     5253 
311000000   -3724.3652    653.58679    4473.9779    1510.0827    2867.8693    300.24542     5252 
312000000   -3763.9111    675.85074    4605.6714    1556.1573    2883.6046    309.08328     5254 
313000000   -3759.5716    629.32098    4731.6284    1528.6657    2860.2269    317.53616     5263 
314000000   -3824.0576    570.78398    4635.8549     1505.314    2889.5275    311.10887     5255 
315000000   -3865.7662    518.95554    4699.4982    1540.9119    2843.8098    315.37993     5257 
316000000    -3837.671    568.58107    4651.2309    1541.9589    2864.2932    312.14074     5247 
317000000   -3869.4504    577.75156    4542.6197    1591.3945    2855.8075    304.85192     5247 
318000000   -3798.8637    470.35521    4652.4931    1475.1768    2794.0421    312.22545     5264 
319000000   -3751.1428    621.08902    4578.3128    1533.2901    2838.9418    307.24726     5258 
320000000   -3691.2235    750.26878    4679.8737    1598.1763     2843.316    314.06294     5254 
321000000   -3799.3548    596.52644    4673.8957    1519.8185    2876.0628    313.66176     5253 
322000000   -3857.8316    560.21291    4690.0736    1554.2452    2863.7993    314.74745     5261 
323000000   -3719.2101    628.84149    4632.2961    1512.1123    2835.9393    310.87005     5255 
324000000   -3748.8523    540.76221    4640.4644    1541.5566    2748.0579    311.41821     5256 
325000000   -3870.0683    427.84193    4637.9117    1522.0553    2775.8549    311.24691     5255 
326000000   -3850.7891    556.88974    4686.4129    1583.6247    2824.0541    314.50179     5262 
327000000   -3746.8596    708.89905    4590.1519     1631.986    2823.7726    308.04178     5256 
328000000   -3871.6526    520.69031    4537.9128     1564.298    2828.0449    304.53605     5256 
329000000   -3859.8055    527.29857    4617.7604    1536.5131     2850.591    309.89456     5259 
330000000   -3802.3233      604.232    4623.5699    1579.2802    2827.2751    310.28444     5256 
331000000   -3814.3436    571.83924    4650.0432    1558.1608     2828.022    312.06104     5249 
332000000    -3795.996    639.28173    4574.7717    1577.4675    2857.8103    307.00962     5252 
333000000   -3753.9338     686.2508    4655.3926    1550.8153    2889.3693    312.42003     5254 
334000000    -3792.123    565.81695     4559.723    1548.4604    2809.4795    305.99972     5251 
335000000   -3791.2354    559.70335    4584.1689    1502.2711    2848.6676    307.64026     5258 
336000000   -3707.4684    644.56862    4544.1959    1513.3009    2838.7361     304.9577     5245 
337000000   -3680.6685    745.77337    4712.0954    1530.6114    2895.8304    316.22532     5258 
338000000   -3753.9438    644.84085      4583.22     1539.697    2859.0877    307.57658     5255 
339000000    -3754.365    664.57799    4730.3646    1534.6469    2884.2961    317.45135     5261 
340000000   -3745.8275    790.89966    4608.1822    1595.4551     2941.272    309.25177     5258 
341000000   -3742.5496    705.73302    4592.4919    1539.1708    2909.1119    308.19881     5249 
342000000   -3796.0296    659.53032    4640.1698    1541.0211    2914.5388    311.39844     5259 
343000000    -3730.276     703.3989    4705.2509    1537.2214    2896.4535    315.76599     5261 
344000000   -3811.1649    587.70459    4722.3028    1530.1042    2868.7653    316.91033     5260 
345000000   -3778.4063    722.29239    4692.3463    1566.5511    2934.1476    314.89997     5260 
346000000   -3828.7049    653.19394    4709.3249    1572.8424    2909.0565    316.03939     5264 
347000000   -3751.9572    731.19238    4604.3903    1565.0333    2918.1163    308.99731     5261 
348000000   -3832.7828    561.28192    4584.3938    1524.1055    2869.9592    307.65536     5256 
349000000   -3714.0256     711.9586    4696.6044    1540.4059    2885.5783    315.18573     5256 
350000000   -3786.1461    645.40363     4518.566    1501.1942    2930.3556     303.2377     5255 
351000000   -3784.6639    658.22175     4537.513    1540.4622    2902.4235    304.50922     5256 
352000000   -3705.9313    768.74406    4613.2786    1558.5086    2916.1668    309.59379     5257 
353000000   -3704.6805    731.33232    4653.2576    1529.1469     2906.866    312.27675     5254 
354000000   -3761.5658    770.46087    4588.0672    1629.4898    2902.5368    307.90188     5252 
355000000   -3764.2126    642.63644    4625.2804    1516.6666    2890.1824    310.39923     5249 
356000000   -3782.2176    607.89987    4698.7662    1492.1296    2897.9878     315.3308     5256 
357000000   -3746.3948    626.10478    4608.6763    1521.2084    2851.2912    309.28494     5252 
358000000   -3744.7197    656.28828    4662.7051    1556.3168    2844.6912    312.91077     5247 
359000000    -3739.769    608.74797    4721.8096    1499.4476    2849.0694    316.87723     5253 
360000000   -3755.5645     676.5406    4548.0782    1523.9975    2908.1076    305.21824     5261 
361000000   -3795.4045    581.63726    4634.0781    1536.9229    2840.1189    310.98963     5256 
362000000   -3755.4096    683.78238    4687.3996    1575.7268    2863.4652      314.568     5252 
363000000   -3699.0082    598.97759    4613.6963    1501.4579    2796.5279    309.62182     5255 
364000000   -3697.6632    688.29931    4625.8389    1514.8425    2871.1201     310.4367     5254 
365000000   -3735.2684    701.51134    4633.4908    1560.9875    2875.7922    310.95022     5260 
366000000   -3812.2619    543.61329    4605.5675    1539.1811    2816.6941     309.0763     5257 
367000000   -3739.9711     745.8276    4549.5064    1606.3362    2879.4626    305.31409     5254 
368000000   -3793.9663    602.14362    4625.5063    1509.3696    2886.7403    310.41438     5264 
369000000   -3873.7758    578.18048    4589.5387    1594.5466    2857.4097    308.00063     5259 
370000000   -3856.1283    580.29195    4648.3355     1507.762    2928.6582    311.94644     5258 
371000000   -3846.9741     682.5257    4625.1135    1582.2596    2947.2402    310.38802     5252 
372000000   -3803.8893    637.40899    4628.0839     1563.437    2877.8613    310.58737     5254 
373000000   -3742.9564    662.62732    4573.6203    1584.0426    2821.5412    306.93235     5248 
374000000   -3754.9776    589.37209    4606.7517    1516.3234    2828.0263    309.15578     5253 
375000000    -3712.452    664.79167    4619.4186    1518.4449    2858.7987    310.00584     5250 
376000000   -3701.8674    695.28583    4597.7224    1528.2596    2868.8937    308.54983     5252 
377000000   -3771.1173    671.47557    4606.2096    1545.6857    2896.9071     309.1194     5259 
378000000   -3742.9736    612.54079    4641.2546    1549.1233    2806.3911    311.47124     5261 
379000000   -3810.6384    612.38809    4589.1756    1564.0344    2858.9921    307.97626     5257 
380000000   -3636.3128    729.59846    4657.7494    1509.5832     2856.328     312.5782     5253 
381000000   -3714.3743    772.16202    4584.4718    1596.5174     2890.019    307.66059     5255 
382000000   -3813.4534    584.80151    4626.2107     1548.974    2849.2809    310.46165     5255 
383000000    -3730.524    624.66876    4696.9695    1504.3984    2850.7943    315.21023     5261 
384000000   -3684.2947    747.36948    4719.0551    1555.3206    2876.3435    316.69238     5260 
385000000    -3775.835    647.67872    4681.2492    1545.4056    2878.1082    314.15525     5256 
386000000   -3816.4722    647.71846    4781.6056    1564.1956    2899.9951    320.89009     5256 
387000000   -3757.2144    672.77266    4568.8164    1556.6027    2873.3844    306.60997     5250 
388000000   -3774.7963    706.80696    4645.0217    1569.8793     2911.724    311.72405     5249 
389000000   -3828.6426    550.70582    4607.6172    1531.5301    2847.8184    309.21386     5253 
390000000   -3899.0569    571.48154    4645.3636    1545.3791    2925.1594      311.747     5263 
391000000   -3757.7025    599.49818     4645.578     1508.448    2848.7527    311.76138     5260 
392000000   -3756.6936    699.86998    4600.5008    1545.6579    2910.9056    308.73628     5252 
393000000   -3779.8472    695.86768    4594.4702    1565.1681    2910.5469    308.33157     5257 
394000000    -3763.531     556.2176    4589.5544    1493.2212    2826.5275    308.00168     5262 
395000000   -3772.4466    639.00965    4533.2059    1555.1675    2856.2888    304.22017     5261 
396000000   -3807.0437    667.36582     4615.365    1523.1288    2951.2808    309.73381     5254 
397000000   -3793.5599    650.31156    4668.0977    1570.1875    2873.6839    313.27266     5258 
398000000   -3827.9342    565.85111    4599.6544     1508.218    2885.5673    308.67948     5260 
399000000   -3780.8907    697.75911    4570.4612    1575.6092    2903.0406    306.72035     5255 
400000000   -3770.6744    595.67311    4657.6776    1530.6396    2835.7079    312.57338     5253 
Loop time of 27425.3 on 10 procs for 100000000 steps with 5000 atoms

Performance: 7875.934 ns/day, 0.003 hours/ns, 3646.266 timesteps/s
99.6% CPU use with 10 MPI tasks x no OpenMP threads

MPI task timing breakdown:
Section |  min time  |  avg time  |  max time  |%varavg| %total
---------------------------------------------------------------
Pair    | 8959.2     | 10347      | 11764      | 781.0 | 37.73
Bond    | 1578       | 1604.5     | 1639.6     |  48.1 |  5.85
Neigh   | 3676.5     | 3708.2     | 3743.5     |  36.9 | 13.52
Comm    | 5401.6     | 6980.4     | 8783.1     |1162.7 | 25.45
Output  | 0.64837    | 0.64847    | 0.64862    |   0.0 |  0.00
Modify  | 3739.2     | 3791.9     | 3852.6     |  52.5 | 13.83
Other   |            | 992.2      |            |       |  3.62

Nlocal:    500 ave 515 max 471 min
Histogram: 1 0 1 1 0 0 1 1 1 4
Nghost:    728.2 ave 953 max 593 min
Histogram: 1 3 0 3 1 0 0 0 1 1
Neighs:    9844.7 ave 11381 max 8770 min
Histogram: 2 1 2 0 0 3 0 1 0 1

Total # of neighbors = 98447
Ave neighs/atom = 19.6894
Ave special neighs/atom = 7.316
Neighbor list builds = 5246361
Dangerous builds = 0
write_restart final_state_${fName}.restart
write_restart final_state_Run5_Relax_Es_3kT_Ens_05kT_input.restart
Total wall time: 7:37:06
