
units           real
boundary p p p
atom_style      full

read_restart final_state_Relax_Es_3kT_Ens_05kT.restart
WARNING: Restart file used different # of processors (../read_restart.cpp:740)
  restoring atom style full from restart
  orthogonal box = (-250 -250 -250) to (250 250 250)
  1 by 2 by 5 MPI processor grid
  restoring pair style lj/cut from restart
  restoring bond style harmonic from restart
  restoring angle style cosine from restart
  5000 atoms
  5251 bonds
  4600 angles
  3 = max # of 1-2 neighbors
  4 = max # of 1-3 neighbors
  8 = max # of 1-4 neighbors
  16 = max # of special neighbors
  special bonds CPU = 0.00734059 secs
  read_restart CPU = 0.0721792 secs

neighbor 1.9 bin
neigh_modify every 1 delay 1 check yes

angle_style  cosine
angle_coeff   *  2  # K (energy unit)

bond_style      harmonic
# bond-type, K (energy/distance^2), R0 (distance)
bond_coeff   1   3   10
bond_coeff   2   3   10
bond_coeff   3   1.8   11.22

pair_style lj/cut 25
# atom-typ1, atom-typ2, energy-well, sigma (bead-diameter), cut-off (distance)
pair_coeff  * * 0.3 10 25

special_bonds lj  1 1 1 angle no

variable t equal step
variable steps equal 100000000
variable dt_thermo equal 1000000
variable dt_movie equal 1000000
variable dt_data equal 10000000

group rxnSites type 1 3
1000 atoms in group rxnSites

# fix ID group-ID(atom-types) bond/create Nevery itype jtype Rmin bondtype (prob values = fraction seed) (iparam maxbond newType)
fix bondc rxnSites bond/create/random 20 1 3 12.72 3 prob 1 ${seed} iparam 1 1 jparam 1 3
fix bondc rxnSites bond/create/random 20 1 3 12.72 3 prob 1 105410 iparam 1 1 jparam 1 3

# fix ID group-ID bond/break Nevery bondtype Rmax keyword values ...
fix bondbr rxnSites bond/break 20 3 12.72 prob 1 ${seed}
fix bondbr rxnSites bond/break 20 3 12.72 prob 1 105410

variable frmbnd equal f_bondc[2]
variable brkbnd equal f_bondbr[2]
fix saveBond all print ${dt_thermo} "$t ${frmbnd} ${brkbnd}" file BondData_${fName}.dat screen no
fix saveBond all print 1000000 "$t ${frmbnd} ${brkbnd}" file BondData_${fName}.dat screen no
fix saveBond all print 1000000 "$t ${frmbnd} ${brkbnd}" file BondData_Run6_Relax_Es_3kT_Ens_05kT_input.dat screen no

thermo_style    custom step epair pe ke ebond eangle temp bonds
thermo          ${dt_thermo}
thermo          1000000
fix saveThermo all print ${dt_thermo} "$t $(temp) $(ke) $(pe) $(epair) $(ebond) $(eangle) $(bonds)" file Thermo_${fName}.dat title "# Steps Temp KinEng PotEng Epair Ebond Eangle Bonds" screen no
fix saveThermo all print 1000000 "$t $(temp) $(ke) $(pe) $(epair) $(ebond) $(eangle) $(bonds)" file Thermo_${fName}.dat title "# Steps Temp KinEng PotEng Epair Ebond Eangle Bonds" screen no
fix saveThermo all print 1000000 "$t $(temp) $(ke) $(pe) $(epair) $(ebond) $(eangle) $(bonds)" file Thermo_Run6_Relax_Es_3kT_Ens_05kT_input.dat title "# Steps Temp KinEng PotEng Epair Ebond Eangle Bonds" screen no

############################ Langevin Dynamics ###############################
fix fxlan all langevin $T $T 500 ${seed}
fix fxlan all langevin 310 $T 500 ${seed}
fix fxlan all langevin 310 310 500 ${seed}
fix fxlan all langevin 310 310 500 105410
fix fxnve all nve

comm_style tiled
fix fxbal all balance 1000 1.1 rcb # load balance for spatially heterogeneous system

timestep 25

restart ${dt_data} ${fName}_tp_*.restart
restart 10000000 ${fName}_tp_*.restart
restart 10000000 Run6_Relax_Es_3kT_Ens_05kT_input_tp_*.restart
dump coor all custom ${dt_movie} traj_${fName}.dump id type mol mass x y z xu yu zu
dump coor all custom 1000000 traj_${fName}.dump id type mol mass x y z xu yu zu
dump coor all custom 1000000 traj_Run6_Relax_Es_3kT_Ens_05kT_input.dump id type mol mass x y z xu yu zu

run ${steps}
run 100000000
Neighbor list info ...
  update every 1 steps, delay 1 steps, check yes
  max neighbors/atom: 2000, page size: 100000
  master list distance cutoff = 26.9
  ghost atom cutoff = 26.9
  binsize = 13.45, bins = 38 38 38
  2 neighbor lists, perpetual/occasional/extra = 1 1 0
  (1) pair lj/cut, perpetual
      attributes: half, newton on
      pair build: half/bin/newton
      stencil: half/bin/3d/newton
      bin: standard
  (2) fix bond/create/random, occasional, copy from (1)
      attributes: half, newton on
      pair build: copy
      stencil: none
      bin: none
WARNING: Inconsistent image flags (../domain.cpp:784)
Per MPI rank memory allocation (min/avg/max) = 10.27 | 10.6 | 11.19 Mbytes
Step E_pair PotEng KinEng E_bond E_angle Temp Bonds 
300000000   -3808.4485    609.18774    4693.9222     1538.457    2879.1792    315.00573     5251 
301000000   -3758.5006    630.63565    4670.4964    1573.2502     2815.886    313.43364     5256 
302000000    -3877.129    626.12197    4572.1755     1593.073     2910.178    306.83539     5263 
303000000   -3772.1088     688.3533    4479.0259    1539.9502    2920.5119    300.58419     5252 
304000000   -3846.6984    610.70343    4677.1083    1578.1649     2879.237    313.87736     5247 
305000000   -3859.3346    523.98985    4632.0511    1535.3878    2847.9367     310.8536     5248 
306000000   -3801.9555    571.88905     4641.855    1527.7388    2846.1057    311.51154     5257 
307000000   -3741.6846    674.35153    4653.4969    1562.4801     2853.556    312.29282     5256 
308000000   -3863.1851    428.31243    4669.6341    1485.0377    2806.4599    313.37577     5258 
309000000    -3768.182    650.57632    4595.8167    1555.5776    2863.1808    308.42193     5252 
310000000   -3744.0204    673.34981    4561.3783    1544.9869    2872.3833     306.1108     5248 
311000000   -3791.6925    548.29285    4612.5678    1542.6023     2797.383    309.54609     5251 
312000000    -3888.762    461.64969    4609.0286     1504.865    2845.5467    309.30858     5250 
313000000   -3785.9426    641.24393    4618.2842    1512.7823    2914.4042    309.92971     5251 
314000000   -3703.4452    763.07121    4546.7867    1566.9732    2899.5432    305.13157     5252 
315000000   -3656.9399    754.57079    4646.8916    1560.1881    2851.3226    311.84953     5249 
316000000   -3863.8392    525.26546    4613.8158    1543.1964    2845.9082    309.62985     5253 
317000000   -3813.3541    613.44581    4570.2256     1574.163    2852.6369    306.70454     5256 
318000000   -3843.5068    503.08165    4541.9732     1563.142    2783.4465    304.80854     5247 
319000000    -3843.723    525.50835    4717.0014    1513.8638    2855.3676    316.55456     5266 
320000000   -3731.9107    613.28743    4618.2411     1523.968    2821.2302    309.92682     5259 
321000000   -3836.5318    563.37229    4595.8499    1575.1621     2824.742    308.42417     5266 
322000000   -3785.6835    591.17427    4642.9407    1562.3315    2814.5263     311.5844     5249 
323000000   -3788.1111    530.68367    4492.8063    1519.6689    2799.1259    301.50898     5257 
324000000   -3831.1756    559.99201    4659.2192    1546.8933    2844.2743    312.67684     5257 
325000000   -3806.2685    624.52064    4595.2847    1550.8639    2879.9252    308.38623     5265 
326000000   -3722.3623    657.63294    4710.9851    1502.4461    2877.5492     316.1508     5256 
327000000   -3793.0026    670.99995    4641.7641    1604.0924    2859.9102    311.50544     5250 
328000000   -3735.9605    671.76363    4650.8982    1572.8169    2834.9073    312.11842     5249 
329000000   -3683.4233    724.99118    4628.8424    1559.9493    2848.4652    310.63827     5252 
330000000   -3776.9677    611.81991     4619.602    1523.7889    2864.9987    310.01815     5254 
331000000   -3785.7267    513.30962    4587.6605    1517.6123     2781.424    307.87458     5260 
332000000   -3795.9252    631.07096    4545.5316    1583.5601     2843.436    305.04734     5257 
333000000   -3827.3154     615.6564    4658.5965     1577.047    2865.9248    312.63504     5253 
334000000   -3806.7028    627.79438    4541.7573    1547.2995    2887.1977    304.79405     5253 
335000000   -3749.4321    703.93919    4752.3038    1584.5978    2868.7734    318.92367     5252 
336000000   -3754.7102    619.81305    4509.6308    1521.2676    2853.2557    302.63807     5258 
337000000   -3849.9427     494.4262    4586.9052    1503.2352    2841.1338     307.8239     5258 
338000000   -3803.7837    598.23561    4569.7708    1541.2878    2860.7316    306.67402     5256 
339000000   -3740.6352    703.61237    4618.5731     1525.359    2918.8886     309.9491     5249 
340000000   -3704.7006    655.30306    4622.3305    1547.4954    2812.5082    310.20126     5256 
341000000   -3826.8058    585.82898     4648.602    1564.1716    2848.4632    311.96432     5258 
342000000   -3808.8602    543.57749    4574.6745    1490.4974    2861.9403     307.0031     5254 
343000000   -3847.6674    646.17019    4592.4167    1569.5156    2924.3219    308.19376     5258 
344000000   -3771.1658    554.21744    4576.2711    1564.2966    2761.0867    307.11025     5262 
345000000     -3802.63    629.27363    4635.6827    1550.2547    2881.6489    311.09731     5249 
346000000   -3745.3416    715.75504    4660.0343     1549.198    2911.8987    312.73154     5254 
347000000   -3943.7404    506.78628    4564.4338    1541.0461    2909.4806    306.31585     5250 
348000000   -3846.2489    563.61403    4598.9547    1587.5781    2822.2849    308.63253     5256 
349000000   -3763.8831    676.93012    4596.7112    1569.2669    2871.5464    308.48197     5254 
350000000   -3814.1826    536.71084    4692.6228    1493.7055    2857.1879    314.91853     5254 
351000000   -3745.5975    724.57815    4513.5495    1580.7127     2889.463    302.90105     5251 
352000000   -3800.1671    642.90935    4618.8458    1516.6045     2926.472    309.96741     5253 
353000000   -3875.1743    544.78469    4628.8466    1560.4736    2859.4854    310.63855     5260 
354000000   -3799.3476    665.76716    4537.3323    1559.9806    2905.1342    304.49709     5255 
355000000   -3815.5924    580.64778    4567.9399     1591.035    2805.2051    306.55114     5259 
356000000   -3760.8541    575.09369    4609.3728    1536.4469    2799.5008    309.33168     5258 
357000000   -3749.2094    652.43651    4714.6924    1547.8737    2853.7722     316.3996     5262 
358000000   -3722.5547    651.89828    4566.3914    1503.5939     2870.859    306.44723     5259 
359000000    -3785.002    620.99819    4677.5465    1578.3555    2827.6447    313.90677     5250 
360000000   -3766.4246    673.46836    4601.5741    1583.3406    2856.5523    308.80831     5250 
361000000   -3825.6251    546.11045    4691.0005    1556.2031    2815.5324    314.80966     5252 
362000000   -3752.5865    640.50429    4627.5204    1584.6433    2808.4474    310.54955     5248 
363000000   -3760.3236    691.59492    4761.9082    1588.0884    2863.8302    319.56821     5248 
364000000   -3911.0861    564.29167    4545.5481    1581.0326    2894.3452    305.04845     5244 
365000000   -3768.3091    756.07841    4641.3188    1560.4067    2963.9808    311.47555     5257 
366000000   -3789.1515    638.85046    4593.3744    1581.7138    2846.2882    308.25804     5260 
367000000   -3770.0339    593.94567    4583.1017     1519.273    2844.7065    307.56864     5256 
368000000   -3736.7721    683.89244    4686.5666    1570.9228    2849.7417     314.5121     5250 
369000000    -3799.018    659.22083     4570.603    1573.3943    2884.8446    306.72987     5257 
370000000   -3825.2627    572.93465    4606.7106    1582.5105    2815.6868    309.15302     5263 
371000000   -3801.8638    677.85678    4614.5879    1589.5843    2890.1362    309.68166     5257 
372000000   -3777.0767    701.34679     4604.739    1591.0479    2887.3756     309.0207     5259 
373000000   -3829.5121    674.96483     4568.762    1576.4784    2927.9985    306.60632     5250 
374000000   -3715.4907    672.88888    4766.5815    1491.4855    2896.8942    319.88184     5253 
375000000   -3778.5036    625.55266    4667.6513    1535.1859    2868.8704    313.24271     5264 
376000000   -3706.1001    802.92466     4614.903    1560.6575    2948.3673    309.70281     5259 
377000000   -3775.5292    548.56041     4589.374     1511.246    2812.8436    307.98957     5253 
378000000    -3846.667    678.72703    4561.5522    1579.9359    2945.4581    306.12247     5258 
379000000   -3764.0633    685.00976    4567.0184    1615.4265    2833.6465     306.4893     5252 
380000000   -3743.7269    676.01911      4679.71    1534.0222    2885.7238    314.05196     5244 
381000000    -3714.901    627.25937    4610.3705    1532.2539    2809.9064    309.39863     5255 
382000000   -3675.5501    710.80158    4613.1001    1519.1644    2867.1873    309.58181     5253 
383000000   -3767.2846    646.72901    4685.1501    1566.7612    2847.2524    314.41704     5256 
384000000   -3677.9184    744.87189    4626.7528    1522.0313    2900.7589    310.49803     5250 
385000000   -3750.3641    657.39466    4676.0477    1575.3658    2832.3929    313.80618     5257 
386000000    -3723.523     697.2616    4577.7716     1528.157    2892.6276    307.21094     5253 
387000000   -3656.3775     864.8867    4660.0353    1642.8396    2878.4246     312.7316     5257 
388000000   -3802.1595     702.1782    4719.1002    1552.2306    2952.1072    316.69541     5248 
389000000   -3676.3218    783.08713    4592.3608    1607.8937    2851.5153    308.19001     5255 
390000000   -3834.3739    622.63581    4609.9497    1558.1663    2898.8434    309.37039     5253 
391000000   -3702.1721    720.03486    4690.3747    1544.9552    2877.2517    314.76766     5246 
392000000   -3683.0097    689.24064    4530.9512    1489.4736    2882.7767    304.06886     5251 
393000000    -3602.495    805.00156    4584.4672    1533.0939    2874.4027    307.66028     5249 
394000000   -3704.0423    650.02256    4598.9035    1474.2656    2879.7992    308.62909     5246 
395000000   -3784.2232    607.24993    4581.2738    1551.6095    2839.8637    307.44597     5255 
396000000   -3641.7416    708.43745    4609.5651    1545.7974    2804.3817    309.34458     5253 
397000000   -3762.2502    619.41474    4613.5705    1537.6233    2844.0416    309.61338     5259 
398000000   -3781.9071    624.92292    4626.2488    1515.9086    2890.9214    310.46421     5245 
399000000    -3744.768    701.62119    4619.2988    1554.0538    2892.3354     309.9978     5254 
400000000   -3797.2114     575.2101    4569.1754    1494.7967    2877.6248    306.63406     5265 
Loop time of 26901.9 on 10 procs for 100000000 steps with 5000 atoms

Performance: 8029.163 ns/day, 0.003 hours/ns, 3717.205 timesteps/s
99.7% CPU use with 10 MPI tasks x no OpenMP threads

MPI task timing breakdown:
Section |  min time  |  avg time  |  max time  |%varavg| %total
---------------------------------------------------------------
Pair    | 9154.8     | 10355      | 11806      | 757.1 | 38.49
Bond    | 1585.2     | 1603.8     | 1646.1     |  50.9 |  5.96
Neigh   | 3679.6     | 3696       | 3715.4     |  18.2 | 13.74
Comm    | 5050.1     | 6614.1     | 8106.8     |1096.0 | 24.59
Output  | 0.58257    | 0.58265    | 0.58277    |   0.0 |  0.00
Modify  | 3650.3     | 3684       | 3777.4     |  62.3 | 13.69
Other   |            | 948.7      |            |       |  3.53

Nlocal:    500 ave 525 max 479 min
Histogram: 2 1 0 2 1 0 2 1 0 1
Nghost:    743.2 ave 1031 max 604 min
Histogram: 1 4 1 2 0 0 0 1 0 1
Neighs:    9990.7 ave 10923 max 7992 min
Histogram: 1 0 1 0 0 2 0 1 1 4

Total # of neighbors = 99907
Ave neighs/atom = 19.9814
Ave special neighs/atom = 7.3764
Neighbor list builds = 5245144
Dangerous builds = 0
write_restart final_state_${fName}.restart
write_restart final_state_Run6_Relax_Es_3kT_Ens_05kT_input.restart
Total wall time: 7:28:22
