
units           real
boundary p p p
atom_style      full

read_restart final_state_Relax_Es_3kT_Ens_05kT.restart
WARNING: Restart file used different # of processors (../read_restart.cpp:740)
  restoring atom style full from restart
  orthogonal box = (-250 -250 -250) to (250 250 250)
  1 by 2 by 5 MPI processor grid
  restoring pair style lj/cut from restart
  restoring bond style harmonic from restart
  restoring angle style cosine from restart
  5000 atoms
  5251 bonds
  4600 angles
  3 = max # of 1-2 neighbors
  4 = max # of 1-3 neighbors
  8 = max # of 1-4 neighbors
  16 = max # of special neighbors
  special bonds CPU = 0.0108335 secs
  read_restart CPU = 0.149535 secs

neighbor 1.9 bin
neigh_modify every 1 delay 1 check yes

angle_style  cosine
angle_coeff   *  2  # K (energy unit)

bond_style      harmonic
# bond-type, K (energy/distance^2), R0 (distance)
bond_coeff   1   3   10
bond_coeff   2   3   10
bond_coeff   3   1.8   11.22

pair_style lj/cut 25
# atom-typ1, atom-typ2, energy-well, sigma (bead-diameter), cut-off (distance)
pair_coeff  * * 0.3 10 25

special_bonds lj  1 1 1 angle no

variable t equal step
variable steps equal 100000000
variable dt_thermo equal 1000000
variable dt_movie equal 1000000
variable dt_data equal 10000000

group rxnSites type 1 3
1000 atoms in group rxnSites

# fix ID group-ID(atom-types) bond/create Nevery itype jtype Rmin bondtype (prob values = fraction seed) (iparam maxbond newType)
fix bondc rxnSites bond/create/random 20 1 3 12.72 3 prob 1 ${seed} iparam 1 1 jparam 1 3
fix bondc rxnSites bond/create/random 20 1 3 12.72 3 prob 1 91940 iparam 1 1 jparam 1 3

# fix ID group-ID bond/break Nevery bondtype Rmax keyword values ...
fix bondbr rxnSites bond/break 20 3 12.72 prob 1 ${seed}
fix bondbr rxnSites bond/break 20 3 12.72 prob 1 91940

variable frmbnd equal f_bondc[2]
variable brkbnd equal f_bondbr[2]
fix saveBond all print ${dt_thermo} "$t ${frmbnd} ${brkbnd}" file BondData_${fName}.dat screen no
fix saveBond all print 1000000 "$t ${frmbnd} ${brkbnd}" file BondData_${fName}.dat screen no
fix saveBond all print 1000000 "$t ${frmbnd} ${brkbnd}" file BondData_Run7_Relax_Es_3kT_Ens_05kT_input.dat screen no

thermo_style    custom step epair pe ke ebond eangle temp bonds
thermo          ${dt_thermo}
thermo          1000000
fix saveThermo all print ${dt_thermo} "$t $(temp) $(ke) $(pe) $(epair) $(ebond) $(eangle) $(bonds)" file Thermo_${fName}.dat title "# Steps Temp KinEng PotEng Epair Ebond Eangle Bonds" screen no
fix saveThermo all print 1000000 "$t $(temp) $(ke) $(pe) $(epair) $(ebond) $(eangle) $(bonds)" file Thermo_${fName}.dat title "# Steps Temp KinEng PotEng Epair Ebond Eangle Bonds" screen no
fix saveThermo all print 1000000 "$t $(temp) $(ke) $(pe) $(epair) $(ebond) $(eangle) $(bonds)" file Thermo_Run7_Relax_Es_3kT_Ens_05kT_input.dat title "# Steps Temp KinEng PotEng Epair Ebond Eangle Bonds" screen no

############################ Langevin Dynamics ###############################
fix fxlan all langevin $T $T 500 ${seed}
fix fxlan all langevin 310 $T 500 ${seed}
fix fxlan all langevin 310 310 500 ${seed}
fix fxlan all langevin 310 310 500 91940
fix fxnve all nve

comm_style tiled
fix fxbal all balance 1000 1.1 rcb # load balance for spatially heterogeneous system

timestep 25

restart ${dt_data} ${fName}_tp_*.restart
restart 10000000 ${fName}_tp_*.restart
restart 10000000 Run7_Relax_Es_3kT_Ens_05kT_input_tp_*.restart
dump coor all custom ${dt_movie} traj_${fName}.dump id type mol mass x y z xu yu zu
dump coor all custom 1000000 traj_${fName}.dump id type mol mass x y z xu yu zu
dump coor all custom 1000000 traj_Run7_Relax_Es_3kT_Ens_05kT_input.dump id type mol mass x y z xu yu zu

run ${steps}
run 100000000
Neighbor list info ...
  update every 1 steps, delay 1 steps, check yes
  max neighbors/atom: 2000, page size: 100000
  master list distance cutoff = 26.9
  ghost atom cutoff = 26.9
  binsize = 13.45, bins = 38 38 38
  2 neighbor lists, perpetual/occasional/extra = 1 1 0
  (1) pair lj/cut, perpetual
      attributes: half, newton on
      pair build: half/bin/newton
      stencil: half/bin/3d/newton
      bin: standard
  (2) fix bond/create/random, occasional, copy from (1)
      attributes: half, newton on
      pair build: copy
      stencil: none
      bin: none
WARNING: Inconsistent image flags (../domain.cpp:784)
Per MPI rank memory allocation (min/avg/max) = 10.27 | 10.6 | 11.19 Mbytes
Step E_pair PotEng KinEng E_bond E_angle Temp Bonds 
300000000   -3808.4485    609.18774    4693.9222     1538.457    2879.1792    315.00573     5251 
301000000   -3933.5956     530.1585    4576.2541    1528.5595    2935.1946    307.10911     5254 
302000000   -3814.7992    555.50081       4545.9    1546.3391    2823.9609    305.07206     5256 
303000000    -3756.441    690.77779    4578.1087    1544.9068     2902.312    307.23357     5251 
304000000   -3832.2694     534.1237    4698.3562    1507.2157    2859.1774    315.30329     5254 
305000000   -3729.0453    715.72988    4568.5856    1534.6743    2910.1009    306.59448     5258 
306000000   -3708.7806    759.66935    4705.3835    1557.6899    2910.7601    315.77488     5251 
307000000   -3787.5183     530.4687    4661.1242    1503.1024    2814.8846    312.80468     5259 
308000000   -3822.4802    573.52958    4570.9433    1574.4597    2821.5501     306.7527     5263 
309000000   -3773.8587    624.75101    4651.8528    1549.4252    2849.1844    312.18248     5253 
310000000   -3864.6284    575.36473    4517.2425    1616.4117    2823.5815    303.14888     5255 
311000000   -3830.8292    561.58422    4536.4748     1526.092    2866.3214    304.43954     5252 
312000000   -3805.6214      591.502    4635.3971    1550.9775    2846.1459    311.07815     5257 
313000000   -3791.2816    634.68331    4630.4782    1555.7229     2870.242    310.74804     5261 
314000000   -3784.2271    580.17893    4592.0814    1545.1251    2819.2809    308.17127     5261 
315000000   -3786.6785    552.01508    4721.0647    1516.0292    2822.6644    316.82724     5255 
316000000   -3850.6337    542.15304    4679.8063    1530.9524    2861.8343    314.05842     5257 
317000000   -3838.8666    618.35134    4604.2426    1525.6184    2931.5996     308.9874     5254 
318000000   -3842.3981    527.91967    4571.2013    1525.5474    2844.7705    306.77002     5261 
319000000   -3724.7379     622.2057    4605.3174    1535.4473    2811.4963    309.05952     5260 
320000000   -3827.8062    562.98203    4513.7192    1526.0649    2864.7234    302.91244     5252 
321000000   -3809.4348    518.70991    4569.6539    1529.4253    2798.7194    306.66617     5248 
322000000   -3845.1237    571.17022    4588.2294    1573.0498    2843.2441    307.91276     5256 
323000000   -3885.7267    606.82689    4605.3904    1576.4385     2916.115    309.06442     5254 
324000000   -3818.7512    543.01017    4668.6247    1528.7462    2833.0152    313.30803     5253 
325000000   -3841.8911    567.19318    4692.0706    1571.8143      2837.27    314.88147     5250 
326000000   -3792.9706    626.51572    4536.1342    1563.3888    2856.0975    304.41669     5244 
327000000   -3803.2431    617.31194    4567.1685    1562.4312    2858.1238    306.49938     5245 
328000000   -3876.3784     551.8234    4600.3832     1561.697    2866.5047    308.72839     5254 
329000000   -3733.5647    598.26438    4667.2783    1524.0844    2807.7447    313.21767     5258 
330000000   -3790.6698    559.74881    4650.6073    1541.5351    2808.8835     312.0989     5251 
331000000   -3802.6356    584.16431    4584.7335     1571.191    2815.6089    307.67815     5254 
332000000   -3855.9645    555.55087     4683.585    1562.3729    2849.1425    314.31201     5261 
333000000   -3899.9497    489.26481    4584.5154    1554.7795    2834.4349    307.66352     5262 
334000000    -3828.957    563.05131    4658.8463    1549.1324    2842.8759    312.65181     5253 
335000000   -3799.9441    539.91452    4621.6333    1560.5506     2779.308    310.15447     5252 
336000000   -3759.7906    596.07469     4588.134    1541.7856    2814.0796    307.90636     5246 
337000000   -3836.7971    673.94085    4566.8892    1597.8794    2912.8585    306.48063     5257 
338000000   -3747.4143     664.9853     4633.755    1557.8592    2854.5404    310.96795     5258 
339000000   -3831.2966     499.1058    4550.7312    1507.1381    2823.2644    305.39628     5256 
340000000   -3758.4572    648.96373    4640.9227    1576.9988    2830.4221    311.44897     5255 
341000000   -3748.0912    632.01948     4682.422    1518.8206    2861.2901    314.23395     5258 
342000000    -3883.891    492.58006    4657.0127    1512.7862    2863.6849    312.52876     5248 
343000000   -3853.7192    483.29255    4610.0271    1552.6347     2784.377    309.37559     5252 
344000000   -3777.6115    565.90923    4648.5677    1519.5268    2823.9939    311.96202     5251 
345000000   -3761.8693    546.68273    4583.6085    1526.4884    2782.0636    307.60265     5253 
346000000   -3905.2761    470.30401    4647.9282    1574.8932    2800.6869     311.9191     5255 
347000000   -3828.2824    580.57717    4639.7238    1554.1835    2854.6761    311.36851     5255 
348000000   -3790.8475    693.34797    4616.0445     1618.354    2865.8415    309.77941     5249 
349000000    -3871.351    513.84316    4607.2512    1549.2868    2835.9073     309.1893     5259 
350000000   -3732.9786    642.57264    4641.9539    1530.4819    2845.0693    311.51817     5260 
351000000   -3864.3573    572.63645     4571.318     1532.619    2904.3747    306.77784     5260 
352000000   -3932.1399    458.40573    4708.1086    1563.4567    2827.0889    315.95777     5257 
353000000   -3823.6304    517.64396    4588.0681    1539.6371    2801.6372    307.90193     5256 
354000000   -3859.5525    572.70336    4585.5599    1585.4348     2846.821    307.73361     5258 
355000000    -3768.091      613.494    4611.5895    1487.7424    2893.8426    309.48044     5260 
356000000   -3752.8703    706.55647    4681.5875    1573.4163    2886.0105    314.17796     5253 
357000000    -3782.053    684.84156    4575.6191    1575.8784    2891.0161    307.06649     5254 
358000000   -3843.2342    453.76182    4564.8269    1490.6659    2806.3301    306.34223     5257 
359000000   -3736.8522    669.89187    4679.8311     1580.153     2826.591    314.06009     5247 
360000000   -3831.7023    529.63455    4611.4914    1539.2609    2822.0759    309.47385     5256 
361000000   -3764.7356       598.75    4748.8796    1499.7829    2863.7027    318.69388     5248 
362000000   -3777.7388    652.08656    4647.0709    1586.5116    2843.3138    311.86157     5249 
363000000   -3775.4693    580.87888    4630.2767    1477.9899    2878.3582    310.73452     5255 
364000000   -3772.7549    614.96514    4547.7729    1526.7186    2861.0015    305.19775     5250 
365000000   -3769.2762    679.63217    4632.4234    1574.4526    2874.4558    310.87859     5254 
366000000   -3860.2423    569.16827    4706.1266    1566.5376     2862.873    315.82475     5263 
367000000   -3657.3938    747.22768     4531.784    1544.4099    2860.2117    304.12475     5258 
368000000   -3791.0205    642.01632    4716.8021    1537.4347    2895.6021    316.54118     5256 
369000000   -3715.6041    695.36384    4560.3883    1547.7551    2863.2129    306.04437     5250 
370000000   -3697.5021    758.88387    4614.6769    1564.9587    2891.4273    309.68763     5251 
371000000   -3753.8781    665.22153    4585.7833    1562.3231    2856.7766     307.7486     5260 
372000000   -3825.0465    646.70423     4661.135     1593.602    2878.1487     312.8054     5255 
373000000   -3804.2929    746.08823     4489.138    1631.1283    2919.2528    301.26281     5257 
374000000   -3809.3035    636.99242    4612.5556    1520.9895    2925.3064    309.54527     5264 
375000000   -3778.4011    625.50657    4623.6098    1546.3276      2857.58    310.28711     5256 
376000000   -3692.1868    772.65743     4550.506    1596.4987    2868.3455    305.38117     5250 
377000000   -3728.1151    735.36801    4555.2566    1504.1649    2959.3181    305.69998     5250 
378000000   -3753.8549    659.56058    4594.6386    1521.8755      2891.54    308.34288     5253 
379000000   -3787.1014    650.83165    4733.8272    1528.1498    2909.7832    317.68372     5252 
380000000   -3761.9343    688.67542     4613.374    1556.0405    2894.5692     309.6002     5253 
381000000    -3737.836     715.8902    4575.2372    1556.8447    2896.8815    307.04086     5259 
382000000   -3763.1655     676.8947    4588.8291    1530.8243     2909.236      307.953     5257 
383000000   -3783.3927    669.69698    4682.9985    1541.7804    2911.3093    314.27265     5250 
384000000   -3734.7683    673.14224    4720.3221    1551.0007    2856.9098     316.7774     5248 
385000000   -3739.2173    686.10244    4684.7132    1492.8017     2932.518    314.38772     5254 
386000000   -3681.2005     764.5474    4665.7614    1550.0448     2895.703    313.11587     5255 
387000000   -3802.5649    584.61732    4619.3592     1494.814    2892.3683    310.00186     5246 
388000000   -3698.1557    638.25678    4650.0746     1523.997    2812.4156    312.06315     5248 
389000000   -3796.2183    712.30262    4632.4583    1580.1598    2928.3611    310.88093     5244 
390000000   -3824.6507    530.01274    4587.5193     1551.295    2803.3684     307.8651     5254 
391000000   -3769.9837    659.04342    4610.2203    1567.2181     2861.809    309.38855     5256 
392000000    -3693.191    706.50925    4713.3226    1591.8718    2807.8285    316.30767     5257 
393000000   -3752.9212    671.70423    4657.0562    1578.5868    2846.0387    312.53167     5258 
394000000   -3824.6058     621.3991    4584.4481    1580.2781    2865.7268      307.659     5258 
395000000    -3805.694    594.18007    4602.4231    1507.4403    2892.4338    308.86529     5255 
396000000   -3815.7287     560.1117    4650.4632    1560.5718    2815.2686    312.08923     5263 
397000000   -3721.5229    753.63488    4652.2613    1542.4955    2932.6623    312.20989     5252 
398000000   -3749.3197    624.40166    4624.1034    1507.6079    2866.1134    310.32024     5259 
399000000   -3779.4031    686.87781    4600.5324    1567.4113    2898.8696    308.73841     5258 
400000000   -3716.2159    772.41723    4655.9153    1593.0273    2895.6059    312.45511     5256 
Loop time of 26763.3 on 10 procs for 100000000 steps with 5000 atoms

Performance: 8070.755 ns/day, 0.003 hours/ns, 3736.461 timesteps/s
99.7% CPU use with 10 MPI tasks x no OpenMP threads

MPI task timing breakdown:
Section |  min time  |  avg time  |  max time  |%varavg| %total
---------------------------------------------------------------
Pair    | 9113.4     | 10365      | 11800      | 784.3 | 38.73
Bond    | 1580.4     | 1597.5     | 1620.1     |  31.1 |  5.97
Neigh   | 3681.1     | 3706.9     | 3729.4     |  21.8 | 13.85
Comm    | 4879.7     | 6492.6     | 8155       |1170.7 | 24.26
Output  | 0.58506    | 0.58521    | 0.58534    |   0.0 |  0.00
Modify  | 3649.9     | 3692.5     | 3715.7     |  28.9 | 13.80
Other   |            | 908.3      |            |       |  3.39

Nlocal:    500 ave 533 max 481 min
Histogram: 1 2 1 2 1 2 0 0 0 1
Nghost:    746.8 ave 1032 max 612 min
Histogram: 2 3 2 1 0 0 0 0 1 1
Neighs:    9778.9 ave 10533 max 8679 min
Histogram: 1 0 2 0 0 2 1 0 1 3

Total # of neighbors = 97789
Ave neighs/atom = 19.5578
Ave special neighs/atom = 7.3304
Neighbor list builds = 5245452
Dangerous builds = 0
write_restart final_state_${fName}.restart
write_restart final_state_Run7_Relax_Es_3kT_Ens_05kT_input.restart
Total wall time: 7:26:03
