
units           real
boundary p p p
atom_style      full

read_restart final_state_Relax_Es_3kT_Ens_05kT.restart
WARNING: Restart file used different # of processors (../read_restart.cpp:740)
  restoring atom style full from restart
  orthogonal box = (-250 -250 -250) to (250 250 250)
  1 by 2 by 5 MPI processor grid
  restoring pair style lj/cut from restart
  restoring bond style harmonic from restart
  restoring angle style cosine from restart
  5000 atoms
  5251 bonds
  4600 angles
  3 = max # of 1-2 neighbors
  4 = max # of 1-3 neighbors
  8 = max # of 1-4 neighbors
  16 = max # of special neighbors
  special bonds CPU = 0.0106488 secs
  read_restart CPU = 0.204444 secs

neighbor 1.9 bin
neigh_modify every 1 delay 1 check yes

angle_style  cosine
angle_coeff   *  2  # K (energy unit)

bond_style      harmonic
# bond-type, K (energy/distance^2), R0 (distance)
bond_coeff   1   3   10
bond_coeff   2   3   10
bond_coeff   3   1.8   11.22

pair_style lj/cut 25
# atom-typ1, atom-typ2, energy-well, sigma (bead-diameter), cut-off (distance)
pair_coeff  * * 0.3 10 25

special_bonds lj  1 1 1 angle no

variable t equal step
variable steps equal 100000000
variable dt_thermo equal 1000000
variable dt_movie equal 1000000
variable dt_data equal 10000000

group rxnSites type 1 3
1000 atoms in group rxnSites

# fix ID group-ID(atom-types) bond/create Nevery itype jtype Rmin bondtype (prob values = fraction seed) (iparam maxbond newType)
fix bondc rxnSites bond/create/random 20 1 3 12.72 3 prob 1 ${seed} iparam 1 1 jparam 1 3
fix bondc rxnSites bond/create/random 20 1 3 12.72 3 prob 1 15341 iparam 1 1 jparam 1 3

# fix ID group-ID bond/break Nevery bondtype Rmax keyword values ...
fix bondbr rxnSites bond/break 20 3 12.72 prob 1 ${seed}
fix bondbr rxnSites bond/break 20 3 12.72 prob 1 15341

variable frmbnd equal f_bondc[2]
variable brkbnd equal f_bondbr[2]
fix saveBond all print ${dt_thermo} "$t ${frmbnd} ${brkbnd}" file BondData_${fName}.dat screen no
fix saveBond all print 1000000 "$t ${frmbnd} ${brkbnd}" file BondData_${fName}.dat screen no
fix saveBond all print 1000000 "$t ${frmbnd} ${brkbnd}" file BondData_Run9_Relax_Es_3kT_Ens_05kT_input.dat screen no

thermo_style    custom step epair pe ke ebond eangle temp bonds
thermo          ${dt_thermo}
thermo          1000000
fix saveThermo all print ${dt_thermo} "$t $(temp) $(ke) $(pe) $(epair) $(ebond) $(eangle) $(bonds)" file Thermo_${fName}.dat title "# Steps Temp KinEng PotEng Epair Ebond Eangle Bonds" screen no
fix saveThermo all print 1000000 "$t $(temp) $(ke) $(pe) $(epair) $(ebond) $(eangle) $(bonds)" file Thermo_${fName}.dat title "# Steps Temp KinEng PotEng Epair Ebond Eangle Bonds" screen no
fix saveThermo all print 1000000 "$t $(temp) $(ke) $(pe) $(epair) $(ebond) $(eangle) $(bonds)" file Thermo_Run9_Relax_Es_3kT_Ens_05kT_input.dat title "# Steps Temp KinEng PotEng Epair Ebond Eangle Bonds" screen no

############################ Langevin Dynamics ###############################
fix fxlan all langevin $T $T 500 ${seed}
fix fxlan all langevin 310 $T 500 ${seed}
fix fxlan all langevin 310 310 500 ${seed}
fix fxlan all langevin 310 310 500 15341
fix fxnve all nve

comm_style tiled
fix fxbal all balance 1000 1.1 rcb # load balance for spatially heterogeneous system

timestep 25

restart ${dt_data} ${fName}_tp_*.restart
restart 10000000 ${fName}_tp_*.restart
restart 10000000 Run9_Relax_Es_3kT_Ens_05kT_input_tp_*.restart
dump coor all custom ${dt_movie} traj_${fName}.dump id type mol mass x y z xu yu zu
dump coor all custom 1000000 traj_${fName}.dump id type mol mass x y z xu yu zu
dump coor all custom 1000000 traj_Run9_Relax_Es_3kT_Ens_05kT_input.dump id type mol mass x y z xu yu zu

run ${steps}
run 100000000
Neighbor list info ...
  update every 1 steps, delay 1 steps, check yes
  max neighbors/atom: 2000, page size: 100000
  master list distance cutoff = 26.9
  ghost atom cutoff = 26.9
  binsize = 13.45, bins = 38 38 38
  2 neighbor lists, perpetual/occasional/extra = 1 1 0
  (1) pair lj/cut, perpetual
      attributes: half, newton on
      pair build: half/bin/newton
      stencil: half/bin/3d/newton
      bin: standard
  (2) fix bond/create/random, occasional, copy from (1)
      attributes: half, newton on
      pair build: copy
      stencil: none
      bin: none
WARNING: Inconsistent image flags (../domain.cpp:784)
Per MPI rank memory allocation (min/avg/max) = 10.27 | 10.6 | 11.19 Mbytes
Step E_pair PotEng KinEng E_bond E_angle Temp Bonds 
300000000   -3808.4485    609.18774    4693.9222     1538.457    2879.1792    315.00573     5251 
301000000   -3786.5548    686.12144     4659.442    1626.7599    2845.9164    312.69179     5252 
302000000   -3674.7266     728.7997    4578.9167    1535.3884    2868.1379    307.28779     5252 
303000000   -3651.3474    822.65063    4751.0623    1606.2836    2867.7144    318.84036     5252 
304000000   -3699.8313    795.96519    4667.4992    1585.2061    2910.5904     313.2325     5254 
305000000   -3655.6468    744.89862    4740.7441    1582.6575     2817.888    318.14791     5260 
306000000   -3713.8439     750.6509     4683.444    1564.1809    2900.3139    314.30254     5257 
307000000   -3703.5258    720.28238    4685.3695    1497.7826    2926.0255    314.43176     5252 
308000000   -3828.7769    551.95582     4618.949    1531.4929    2849.2399    309.97433     5251 
309000000   -3855.8639    556.71061    4569.4082     1571.625    2840.9496    306.64968     5255 
310000000   -3771.9676    646.10809    4651.2499    1572.4059    2845.6698    312.14202     5260 
311000000   -3744.9846    622.34136    4584.3123    1538.2503    2829.0757    307.64988     5259 
312000000    -3833.925    600.26199    4680.8525    1527.4017    2906.7853    314.12863     5254 
313000000   -3767.5333    681.42321    4593.7774     1537.814    2911.1425    308.28508     5251 
314000000   -3791.1945     627.0613     4695.667    1506.9775    2911.2782    315.12282     5245 
315000000   -3773.1709    632.60779    4647.2472    1552.3893    2853.3894     311.8734     5247 
316000000   -3776.1985    622.42154     4615.214    1572.9529    2825.6671    309.72367     5250 
317000000   -3809.9172    509.13055    4675.2187    1521.8603    2797.1875    313.75055     5257 
318000000    -3748.165    593.10619    4570.0768    1510.8122     2830.459    306.69455     5254 
319000000   -3798.9941    623.23551    4603.4641    1537.7778    2884.4518    308.93515     5253 
320000000   -3729.3135    628.62044     4577.415    1528.7898    2829.1442    307.18701     5262 
321000000   -3815.7399    677.00939    4568.0729    1625.0293      2867.72    306.56007     5258 
322000000   -3776.3621    603.83236    4585.9078    1519.1025    2861.0919    307.75696     5259 
323000000   -3757.2198    676.79148    4606.2676    1588.0224    2845.9888    309.12329     5259 
324000000   -3743.2149    662.09897    4660.2344    1514.6909     2890.623    312.74496     5254 
325000000   -3829.7944    547.10421    4634.6972     1535.112    2841.7866    311.03118     5260 
326000000    -3793.603    677.03741    4645.9865    1625.0721    2845.5682     311.7888     5258 
327000000   -3821.0594    569.02232    4644.7845    1548.8555    2841.2262    311.70813     5258 
328000000   -3899.2044     537.6539    4612.8062    1556.2409    2880.6174    309.56209     5257 
329000000    -3803.945     594.9031    4623.7452    1564.2602    2834.5879     310.2962     5262 
330000000   -3844.4404    540.08157    4699.9339    1528.2638    2856.2582    315.40917     5263 
331000000   -3870.4791    526.31868    4710.8572    1518.9222    2877.8756    316.14222     5256 
332000000   -3761.4732    611.64781    4644.6223    1566.3789    2806.7421    311.69724     5249 
333000000   -3766.5735    694.08238    4644.4123    1559.5221    2901.1338    311.68315     5260 
334000000    -3814.021    448.19256    4555.6939     1479.134    2783.0796    305.72933     5258 
335000000   -3806.9602    580.77913    4647.0391    1518.8733    2868.8661    311.85943     5254 
336000000    -3806.569    580.90626    4644.9977    1570.5319    2816.9434    311.72244     5254 
337000000   -3787.6561    523.92024    4650.1549    1537.3256    2774.2508    312.06854     5259 
338000000   -3819.5626     647.1746    4620.0396    1575.9745    2890.7627    310.04752     5254 
339000000   -3851.8339    595.95978     4595.418    1549.5259    2898.2678    308.39518     5256 
340000000   -3817.9078    542.40445    4502.6971    1547.1226    2813.1897    302.17275     5259 
341000000   -3734.7327     622.4219    4532.3297    1577.6791    2779.4755    304.16137     5251 
342000000   -3782.7864     605.3328    4632.0694    1511.3401    2876.7792    310.85483     5259 
343000000   -3809.0954    671.65696    4532.5237     1601.228    2879.5244    304.17439     5256 
344000000   -3913.5527    443.40036    4560.5691    1464.3892    2892.5639     306.0565     5255 
345000000   -3804.6397    686.53753    4629.8492    1566.9982     2924.179    310.70584     5254 
346000000   -3727.1519    610.36968    4573.6105    1515.2996     2822.222     306.9317     5260 
347000000   -3847.6167    454.51951    4694.8634    1532.0666    2770.0696    315.06889     5256 
348000000   -3775.6258      628.785    4605.6056    1550.2692    2854.1416    309.07886     5253 
349000000   -3751.8775    657.14215    4638.7135    1502.7304    2906.2892    311.30071     5254 
350000000   -3762.2211    664.26267     4652.203    1557.0918     2869.392    312.20598     5253 
351000000   -3703.4178    614.45271    4614.3946    1517.6025     2800.268    309.66868     5249 
352000000   -3821.9041    557.13207    4559.3625    1528.3789    2850.6573    305.97552     5255 
353000000   -3757.0639    618.38554    4594.7891    1571.5583    2803.8912    308.35297     5257 
354000000   -3708.6709     643.0859    4618.3771    1533.3344    2818.4224    309.93595     5250 
355000000   -3781.8293    619.71327    4580.2304     1596.109    2805.4335    307.37595     5255 
356000000   -3776.7206    594.25358    4496.8379    1598.9067    2772.0674    301.77954     5256 
357000000   -3795.7323    586.08074    4647.4214    1527.0893    2854.7237    311.88509     5265 
358000000   -3891.3993     433.0917    4664.1333    1509.2254    2815.2657    313.00662     5259 
359000000    -3795.946    585.96278    4596.7938    1506.3774    2875.5314    308.48751     5253 
360000000   -3840.8159    461.80029    4583.5519    1564.7741    2737.8421    307.59886     5259 
361000000   -3802.7133    579.63475    4594.6223     1525.497    2856.8511    308.34178     5254 
362000000   -3760.9172    668.11703    4527.9118    1539.4281    2889.6061    303.86489     5253 
363000000   -3806.1367    561.90863    4626.0184    1497.2428    2870.8026    310.44875     5258 
364000000   -3709.6115    742.50314    4620.3313    1576.7699    2875.3447     310.0671     5247 
365000000   -3841.6586    585.99768    4630.7428     1550.595    2877.0612     310.7658     5248 
366000000   -3799.0994    631.46086    4595.0205    1569.1476    2861.4127    308.36851     5251 
367000000   -3768.6736    653.05109    4607.0268    1541.1584    2880.5664    309.17424     5259 
368000000   -3859.2787    554.75635    4677.3259    1548.7997    2865.2353    313.89196     5251 
369000000   -3892.8691    549.20442    4676.3405    1577.0383    2865.0353    313.82583     5261 
370000000   -3853.8358    533.65308    4616.3598    1559.1612    2828.3277    309.80057     5263 
371000000   -3770.2827      603.372    4594.3422     1530.814    2842.8406    308.32299     5263 
372000000   -3774.5498    572.09735    4620.4842    1498.4858    2848.1613    310.07735     5266 
373000000    -3871.458    594.39679    4543.4708    1568.8076    2897.0471    304.90904     5255 
374000000   -3744.9642    617.95358    4582.5886    1550.7555    2812.1623    307.53421     5263 
375000000   -3708.0895    659.75525    4567.1364     1560.541    2807.3038    306.49722     5254 
376000000   -3707.3883    735.92601    4625.1371    1562.6621    2880.6523    310.38961     5243 
377000000   -3841.8805    624.38071    4626.1883    1562.6855    2903.5757    310.46015     5256 
378000000   -3767.5722    534.67066    4637.4036    1483.1786    2819.0643     311.2128     5261 
379000000   -3721.3608    653.53158    4661.1654    1567.3646    2807.5278    312.80744     5254 
380000000   -3684.1456    764.26458    4691.2934    1617.9671    2830.4431    314.82931     5260 
381000000   -3770.7026    671.24323    4670.7485    1597.0264    2844.9195    313.45056     5260 
382000000   -3808.7217    647.43554    4588.3613    1573.1063     2883.051    307.92161     5260 
383000000   -3775.3926    708.77472    4618.2197    1554.0649    2930.1024    309.92539     5252 
384000000   -3839.5396    621.39564    4630.6716    1588.7177    2872.2176    310.76103     5258 
385000000   -3757.4083    642.77884    4600.9428    1541.3368    2858.8503    308.76595     5262 
386000000   -3770.4246    624.06728    4648.7101    1528.0641    2866.4278    311.97158     5265 
387000000   -3874.3944    513.26653    4683.6502    1509.9618    2877.6991    314.31638     5267 
388000000   -3760.8835     743.6588    4606.1977    1628.6338    2875.9085     309.1186     5264 
389000000   -3829.7091     590.6475    4713.2452     1542.441    2877.9156    316.30248     5261 
390000000   -3841.0875    571.68815    4742.9556    1592.6555    2820.1201    318.29632     5254 
391000000   -3862.1239    571.40141    4642.6391    1597.9063     2835.619    311.56416     5256 
392000000   -3950.8836    463.85803     4556.502     1543.066    2871.6755    305.78355     5249 
393000000   -3800.6101    564.10079    4597.7786     1541.857    2822.8539     308.5536     5262 
394000000   -3764.9525    666.15472     4549.365    1575.5831    2855.5241     305.3046     5259 
395000000   -3705.7064    736.86588    4576.9743    1545.4987    2897.0736    307.15744     5257 
396000000   -3818.0487    639.14036    4574.2492    1564.0309    2893.1582    306.97456     5265 
397000000   -3741.8187    697.26463    4679.6969    1538.3658    2900.7176    314.05108     5258 
398000000   -3813.0665    632.96064    4573.6212    1542.8401    2903.1871    306.93241     5260 
399000000   -3798.2009    571.69504    4724.7673    1509.4884    2860.4075    317.07572     5255 
400000000   -3694.8906    787.16593    4560.2726    1601.0141    2881.0424     306.0366     5259 
Loop time of 27525 on 10 procs for 100000000 steps with 5000 atoms

Performance: 7847.414 ns/day, 0.003 hours/ns, 3633.062 timesteps/s
99.6% CPU use with 10 MPI tasks x no OpenMP threads

MPI task timing breakdown:
Section |  min time  |  avg time  |  max time  |%varavg| %total
---------------------------------------------------------------
Pair    | 9118       | 10387      | 11905      | 801.8 | 37.74
Bond    | 1587.4     | 1610.1     | 1647.6     |  52.4 |  5.85
Neigh   | 3693.6     | 3718.4     | 3742.4     |  26.6 | 13.51
Comm    | 5342.9     | 7030.6     | 8586.6     |1155.1 | 25.54
Output  | 0.71071    | 0.71082    | 0.71089    |   0.0 |  0.00
Modify  | 3716.5     | 3756.5     | 3829.9     |  51.8 | 13.65
Other   |            | 1021       |            |       |  3.71

Nlocal:    500 ave 523 max 467 min
Histogram: 1 1 1 1 0 0 1 0 2 3
Nghost:    738 ave 1010 max 587 min
Histogram: 2 0 3 3 0 0 0 1 0 1
Neighs:    9756.6 ave 11487 max 7673 min
Histogram: 1 1 1 0 2 1 0 1 1 2

Total # of neighbors = 97566
Ave neighs/atom = 19.5132
Ave special neighs/atom = 7.366
Neighbor list builds = 5246716
Dangerous builds = 0
write_restart final_state_${fName}.restart
write_restart final_state_Run9_Relax_Es_3kT_Ens_05kT_input.restart
Total wall time: 7:38:45
