
units           real
boundary p p p
atom_style      full

read_restart final_state_Relax_Es_5kT_Ens_03kT.restart
WARNING: Restart file used different # of processors (../read_restart.cpp:740)
  restoring atom style full from restart
  orthogonal box = (-250 -250 -250) to (250 250 250)
  1 by 2 by 5 MPI processor grid
  restoring pair style lj/cut from restart
  restoring bond style harmonic from restart
  restoring angle style cosine from restart
  5000 atoms
  5291 bonds
  4600 angles
  3 = max # of 1-2 neighbors
  4 = max # of 1-3 neighbors
  8 = max # of 1-4 neighbors
  16 = max # of special neighbors
  special bonds CPU = 0.00955612 secs
  read_restart CPU = 0.107563 secs

neighbor 1.9 bin
neigh_modify every 1 delay 1 check yes

angle_style  cosine
angle_coeff   *  2  # K (energy unit)

bond_style      harmonic
# bond-type, K (energy/distance^2), R0 (distance)
bond_coeff   1   3   10
bond_coeff   2   3   10
bond_coeff   3   3   11.22

pair_style lj/cut 25
# atom-typ1, atom-typ2, energy-well, sigma (bead-diameter), cut-off (distance)
pair_coeff  * * 0.18 10 25

special_bonds lj  1 1 1 angle no

variable t equal step
variable steps equal 100000000
variable dt_thermo equal 1000000
variable dt_movie equal 1000000
variable dt_data equal 10000000

group rxnSites type 1 3
1000 atoms in group rxnSites

# fix ID group-ID(atom-types) bond/create Nevery itype jtype Rmin bondtype (prob values = fraction seed) (iparam maxbond newType)
fix bondc rxnSites bond/create/random 20 1 3 12.72 3 prob 1 ${seed} iparam 1 1 jparam 1 3
fix bondc rxnSites bond/create/random 20 1 3 12.72 3 prob 1 287307 iparam 1 1 jparam 1 3

# fix ID group-ID bond/break Nevery bondtype Rmax keyword values ...
fix bondbr rxnSites bond/break 20 3 12.72 prob 1 ${seed}
fix bondbr rxnSites bond/break 20 3 12.72 prob 1 287307

variable frmbnd equal f_bondc[2]
variable brkbnd equal f_bondbr[2]
fix saveBond all print ${dt_thermo} "$t ${frmbnd} ${brkbnd}" file BondData_${fName}.dat screen no
fix saveBond all print 1000000 "$t ${frmbnd} ${brkbnd}" file BondData_${fName}.dat screen no
fix saveBond all print 1000000 "$t ${frmbnd} ${brkbnd}" file BondData_Run1_Relax_Es_5kT_Ens_03kT_input.dat screen no

thermo_style    custom step epair pe ke ebond eangle temp bonds
thermo          ${dt_thermo}
thermo          1000000
fix saveThermo all print ${dt_thermo} "$t $(temp) $(ke) $(pe) $(epair) $(ebond) $(eangle) $(bonds)" file Thermo_${fName}.dat title "# Steps Temp KinEng PotEng Epair Ebond Eangle Bonds" screen no
fix saveThermo all print 1000000 "$t $(temp) $(ke) $(pe) $(epair) $(ebond) $(eangle) $(bonds)" file Thermo_${fName}.dat title "# Steps Temp KinEng PotEng Epair Ebond Eangle Bonds" screen no
fix saveThermo all print 1000000 "$t $(temp) $(ke) $(pe) $(epair) $(ebond) $(eangle) $(bonds)" file Thermo_Run1_Relax_Es_5kT_Ens_03kT_input.dat title "# Steps Temp KinEng PotEng Epair Ebond Eangle Bonds" screen no

############################ Langevin Dynamics ###############################
fix fxlan all langevin $T $T 500 ${seed}
fix fxlan all langevin 310 $T 500 ${seed}
fix fxlan all langevin 310 310 500 ${seed}
fix fxlan all langevin 310 310 500 287307
fix fxnve all nve

comm_style tiled
fix fxbal all balance 1000 1.1 rcb # load balance for spatially heterogeneous system

timestep 25

restart ${dt_data} ${fName}_tp_*.restart
restart 10000000 ${fName}_tp_*.restart
restart 10000000 Run1_Relax_Es_5kT_Ens_03kT_input_tp_*.restart
dump coor all custom ${dt_movie} traj_${fName}.dump id type mol mass x y z xu yu zu
dump coor all custom 1000000 traj_${fName}.dump id type mol mass x y z xu yu zu
dump coor all custom 1000000 traj_Run1_Relax_Es_5kT_Ens_03kT_input.dump id type mol mass x y z xu yu zu

run ${steps}
run 100000000
Neighbor list info ...
  update every 1 steps, delay 1 steps, check yes
  max neighbors/atom: 2000, page size: 100000
  master list distance cutoff = 26.9
  ghost atom cutoff = 26.9
  binsize = 13.45, bins = 38 38 38
  2 neighbor lists, perpetual/occasional/extra = 1 1 0
  (1) pair lj/cut, perpetual
      attributes: half, newton on
      pair build: half/bin/newton
      stencil: half/bin/3d/newton
      bin: standard
  (2) fix bond/create/random, occasional, copy from (1)
      attributes: half, newton on
      pair build: copy
      stencil: none
      bin: none
WARNING: Inconsistent image flags (../domain.cpp:784)
Per MPI rank memory allocation (min/avg/max) = 10.27 | 10.56 | 11.11 Mbytes
Step E_pair PotEng KinEng E_bond E_angle Temp Bonds 
300000000   -1381.8686     2859.495    4683.8198    1505.9058    2735.4577    314.32776     5291 
301000000   -1373.5561    2916.5882    4658.7982     1559.869    2730.2753    312.64858     5291 
302000000   -1408.3293    2859.1271    4676.9173    1555.8414    2711.6149    313.86454     5292 
303000000   -1414.2288    2874.0227    4588.6067     1579.194    2709.0575    307.93808     5292 
304000000   -1378.5335    2822.2593    4654.8866    1516.2439    2684.5488    312.38608     5292 
305000000   -1392.1674     2831.866    4655.5767    1581.4854    2642.5479    312.43239     5292 
306000000   -1397.4539    2873.8907    4581.8828    1600.2063    2671.1383    307.48684     5292 
307000000   -1357.5759    2861.1445    4567.7525    1522.4789    2696.2415    306.53857     5292 
308000000   -1414.3436     2797.616    4643.6719    1524.4614    2687.4983    311.63347     5292 
309000000   -1397.9883    2847.8695    4594.9037    1563.8714    2681.9864    308.36067     5291 
310000000    -1388.294    2751.9755    4640.7835     1527.066    2613.2036    311.43963     5291 
311000000   -1362.0644    2920.8899    4545.8455     1561.044    2721.9103     305.0684     5291 
312000000   -1436.6182    2900.5713     4614.585    1606.6766     2730.513    309.68147     5291 
313000000    -1439.541    2818.3683    4600.9198    1531.5026    2726.4067     308.7644     5289 
314000000    -1390.314     2798.027    4664.3778    1526.7298    2661.6113    313.02302     5289 
315000000   -1410.7097    2868.9447    4607.1694    1584.0629    2695.5916    309.18381     5289 
316000000   -1440.3327    2827.7758    4556.1025    1509.9132    2758.1954    305.75675     5291 
317000000   -1392.0721    2851.5175    4656.1342    1544.9777     2698.612     312.4698     5291 
318000000    -1365.161    2879.5297     4512.608    1554.4715    2690.2192    302.83786     5291 
319000000   -1349.0184    2863.9939    4652.9299    1542.6829    2670.3293    312.25476     5292 
320000000   -1348.3278    2959.2294    4714.6086    1570.9962     2736.561    316.39397     5292 
321000000   -1368.5392    2859.3062    4640.5797    1586.9246    2640.9208    311.42595     5292 
322000000   -1344.7675    2918.9655    4655.7676    1562.2899    2701.4431     312.4452     5291 
323000000   -1358.3852    2878.4132    4667.4457    1586.4716    2650.3269    313.22891     5290 
324000000   -1429.2212    2840.1827    4600.4783    1552.0539      2717.35    308.73477     5290 
325000000    -1383.354    2973.4176    4669.8678    1647.3152    2709.4563    313.39145     5290 
326000000   -1447.9637     2771.219     4627.131    1537.2622    2681.9205    310.52342     5290 
327000000   -1388.6086    2922.7013    4693.2985     1589.756    2721.5539    314.96387     5291 
328000000   -1341.3678    2870.8906    4619.2643    1524.4576    2687.8008    309.99549     5289 
329000000   -1357.7535    2937.4514    4544.6459    1545.4093    2749.7957     304.9879     5289 
330000000   -1369.9797    2900.8161    4687.9318    1594.1555    2676.6403    314.60371     5290 
331000000   -1405.9301     2913.741    4500.2915    1571.9323    2747.7388    302.01131     5292 
332000000   -1368.3056    2922.4966    4577.1902    1608.3676    2682.4346    307.17193     5292 
333000000    -1426.737    2896.4289    4545.8981    1561.9128     2761.253    305.07194     5291 
334000000    -1408.756     2754.763    4569.3739    1537.6594    2625.8596    306.64738     5293 
335000000   -1376.7421     2858.499    4493.8523    1549.4908    2685.7503    301.57918     5293 
336000000   -1335.5192    2835.5778    4656.9108    1561.3947    2609.7024    312.52192     5293 
337000000   -1370.0011    2939.3433    4606.2348    1579.5805    2729.7639    309.12109     5293 
338000000   -1368.0042    2842.8551    4583.3644    1559.8577    2651.0015    307.58628     5293 
339000000   -1412.3785     2879.535    4553.5467    1596.0013    2695.9122    305.58523     5291 
340000000   -1405.0375    2843.4041    4585.6897    1527.4936    2720.9479    307.74232     5291 
341000000    -1420.341    2882.9921     4622.117    1581.6654    2721.6677    310.18693     5292 
342000000   -1400.5574    2833.8373     4570.062    1555.3267    2679.0679    306.69356     5293 
343000000   -1364.2966     2919.186     4584.592    1572.2119    2711.2707    307.66866     5291 
344000000   -1363.9592     2966.421    4589.7054    1592.8136    2737.5666    308.01181     5291 
345000000   -1362.0372    2885.3432    4622.8253    1558.2516    2689.1288    310.23446     5292 
346000000    -1356.878    2983.9118    4701.5888    1578.3257    2762.4641    315.52022     5291 
347000000   -1357.8797    2956.1717     4669.393    1596.3592    2717.6922    313.35959     5293 
348000000   -1385.5619    2832.7754    4768.8383    1553.6752    2664.6621    320.03329     5293 
349000000   -1336.2703    2878.9128    4600.6444    1552.6964    2662.4866    308.74592     5293 
350000000   -1380.5431    2954.5105    4603.9918    1591.0196    2744.0341    308.97056     5293 
351000000   -1333.9575    2984.2931    4598.8434    1599.1641    2719.0865    308.62506     5294 
352000000   -1408.2519    2926.1106    4634.8572    1575.9071    2758.4554    311.04192     5292 
353000000   -1377.9239    2841.1978    4620.0517     1539.784    2679.3377    310.04833     5292 
354000000   -1357.8763    2895.8327    4637.0935    1546.6843    2707.0247      311.192     5293 
355000000   -1359.0513    2885.0354    4512.0367    1538.3824    2705.7043    302.79952     5292 
356000000   -1340.3396    2939.3989    4591.4151    1579.9728    2699.7657    308.12655     5292 
357000000   -1347.7542    2879.0638    4625.0459    1548.7773    2678.0407    310.38349     5292 
358000000   -1373.3275    2873.3661     4597.745    1573.8623    2672.8312    308.55135     5292 
359000000     -1338.65    3008.6824    4535.2677    1649.1163     2698.216    304.35854     5293 
360000000   -1356.8071    2787.7748    4792.8827    1531.4321    2613.1497    321.64689     5292 
361000000    -1335.655     2964.471    4575.8097    1565.5499    2734.5761    307.07928     5293 
362000000   -1366.9563    2836.1174    4621.8353     1501.029    2702.0447    310.16803     5293 
363000000   -1352.0206    2866.3233    4669.0412    1534.8317    2683.5122    313.33598     5294 
364000000   -1327.7871    2855.2071    4622.0529    1524.7692     2658.225    310.18263     5293 
365000000    -1402.399    2866.2572    4641.3403    1541.4857    2727.1705      311.477     5293 
366000000    -1365.046    2899.0006    4617.4451    1570.5857    2693.4609    309.87341     5294 
367000000   -1371.9579    2907.2796    4593.8169    1574.7935     2704.444    308.28773     5294 
368000000    -1357.028    2962.5617    4600.4092    1552.0472    2767.5425    308.73014     5294 
369000000    -1400.185    2831.5793    4650.5354    1500.2823     2731.482    312.09407     5293 
370000000   -1397.6773    2816.6244    4568.8059    1546.2017       2668.1    306.60926     5295 
371000000   -1347.3651    2943.1399    4686.0693    1557.8261    2732.6788    314.47873     5294 
372000000    -1372.147    2963.4479    4676.9836    1548.8446    2786.7502    313.86899     5294 
373000000   -1380.4687    2946.6216    4646.8965      1583.64    2743.4504    311.84986     5294 
374000000   -1369.7628    2915.2088    4611.5755    1595.5051    2689.4665     309.4795     5294 
375000000   -1398.0054    2876.3223    4536.0312    1585.9606    2688.3671    304.40978     5294 
376000000   -1393.7403    2990.6799    4655.4885    1600.2504    2784.1698    312.42647     5294 
377000000   -1391.7263    2869.0014    4700.9386    1554.4708    2706.2569    315.47659     5293 
378000000   -1346.9144    2906.5724     4662.476    1560.3046    2693.1821     312.8954     5293 
379000000   -1394.4959    2904.2101     4614.575    1577.4477    2721.2583    309.68079     5292 
380000000   -1367.5552    2932.6061    4691.3077    1557.8174    2742.3439    314.83027     5293 
381000000   -1371.6791     2861.957    4631.6855    1534.1707    2699.4654    310.82907     5293 
382000000   -1415.3101    2853.6461    4603.4428     1560.372    2708.5842    308.93372     5292 
383000000   -1330.8975      2950.82    4713.6301    1563.7613    2717.9562    316.32831     5291 
384000000   -1404.3643    2881.7778    4664.8554    1589.2752    2696.8669    313.05507     5292 
385000000   -1402.9184    2858.3297    4522.6737    1574.1832    2687.0649    303.51336     5290 
386000000   -1377.0154    2939.3795    4576.1172    1609.1883    2707.2066    307.09992     5291 
387000000   -1406.4741    2854.5462    4704.4626    1529.3767    2731.6437    315.71309     5291 
388000000    -1383.797    2897.6209    4655.8323    1553.3068    2728.1111    312.44954     5292 
389000000   -1402.1726    2892.2709    4484.8817    1571.5667    2722.8767    300.97717     5293 
390000000   -1347.9347    2860.1395    4556.8979    1514.5044    2693.5698    305.81012     5293 
391000000   -1324.6266    2978.1508    4673.8794    1628.3623    2674.4151    313.66067     5293 
392000000    -1336.198    2915.3129    4552.2245      1575.83     2675.681     305.4965     5292 
393000000   -1391.4421     2927.164    4654.2782    1578.6618    2739.9443    312.34524     5290 
394000000   -1376.5965    2949.7808    4672.1611    1619.9599    2706.4174    313.54535     5291 
395000000   -1381.1614    2890.2446    4630.8677    1555.2566    2716.1495    310.77418     5291 
396000000   -1373.3434    2971.3438    4575.9939    1618.7034    2725.9838    307.09165     5291 
397000000   -1383.4047    2855.8422    4587.3806    1546.7408    2692.5061     307.8558     5290 
398000000   -1353.8078    2979.7206    4584.0093    1622.4492    2711.0791    307.62955     5290 
399000000   -1354.5051    2892.0669    4583.9004    1544.6288    2701.9432    307.62224     5289 
400000000   -1378.8066    2927.8792    4632.0038    1548.5283    2758.1574    310.85043     5289 
Loop time of 22661.7 on 10 procs for 100000000 steps with 5000 atoms

Performance: 9531.492 ns/day, 0.003 hours/ns, 4412.728 timesteps/s
99.7% CPU use with 10 MPI tasks x no OpenMP threads

MPI task timing breakdown:
Section |  min time  |  avg time  |  max time  |%varavg| %total
---------------------------------------------------------------
Pair    | 6631.6     | 7381.5     | 8212.1     | 626.7 | 32.57
Bond    | 1574.7     | 1606.9     | 1639.9     |  50.7 |  7.09
Neigh   | 3001.1     | 3032.4     | 3070.8     |  41.5 | 13.38
Comm    | 5034.7     | 5976.9     | 7038.4     | 806.0 | 26.37
Output  | 0.60867    | 0.60875    | 0.60885    |   0.0 |  0.00
Modify  | 3597.3     | 3630.8     | 3660.4     |  35.1 | 16.02
Other   |            | 1033       |            |       |  4.56

Nlocal:    500 ave 521 max 478 min
Histogram: 2 1 0 1 0 1 2 0 1 2
Nghost:    641 ave 867 max 544 min
Histogram: 2 2 3 1 0 0 1 0 0 1
Neighs:    7004.1 ave 8405 max 5708 min
Histogram: 2 0 2 0 2 0 1 0 1 2

Total # of neighbors = 70041
Ave neighs/atom = 14.0082
Ave special neighs/atom = 7.4708
Neighbor list builds = 5039243
Dangerous builds = 0
write_restart final_state_${fName}.restart
write_restart final_state_Run1_Relax_Es_5kT_Ens_03kT_input.restart
Total wall time: 6:17:42
