
units           real
boundary p p p
atom_style      full

read_restart final_state_Relax_Es_5kT_Ens_03kT.restart
WARNING: Restart file used different # of processors (../read_restart.cpp:740)
  restoring atom style full from restart
  orthogonal box = (-250 -250 -250) to (250 250 250)
  1 by 2 by 5 MPI processor grid
  restoring pair style lj/cut from restart
  restoring bond style harmonic from restart
  restoring angle style cosine from restart
  5000 atoms
  5291 bonds
  4600 angles
  3 = max # of 1-2 neighbors
  4 = max # of 1-3 neighbors
  8 = max # of 1-4 neighbors
  16 = max # of special neighbors
  special bonds CPU = 0.0128349 secs
  read_restart CPU = 0.27468 secs

neighbor 1.9 bin
neigh_modify every 1 delay 1 check yes

angle_style  cosine
angle_coeff   *  2  # K (energy unit)

bond_style      harmonic
# bond-type, K (energy/distance^2), R0 (distance)
bond_coeff   1   3   10
bond_coeff   2   3   10
bond_coeff   3   3   11.22

pair_style lj/cut 25
# atom-typ1, atom-typ2, energy-well, sigma (bead-diameter), cut-off (distance)
pair_coeff  * * 0.18 10 25

special_bonds lj  1 1 1 angle no

variable t equal step
variable steps equal 100000000
variable dt_thermo equal 1000000
variable dt_movie equal 1000000
variable dt_data equal 10000000

group rxnSites type 1 3
1000 atoms in group rxnSites

# fix ID group-ID(atom-types) bond/create Nevery itype jtype Rmin bondtype (prob values = fraction seed) (iparam maxbond newType)
fix bondc rxnSites bond/create/random 20 1 3 12.72 3 prob 1 ${seed} iparam 1 1 jparam 1 3
fix bondc rxnSites bond/create/random 20 1 3 12.72 3 prob 1 919368 iparam 1 1 jparam 1 3

# fix ID group-ID bond/break Nevery bondtype Rmax keyword values ...
fix bondbr rxnSites bond/break 20 3 12.72 prob 1 ${seed}
fix bondbr rxnSites bond/break 20 3 12.72 prob 1 919368

variable frmbnd equal f_bondc[2]
variable brkbnd equal f_bondbr[2]
fix saveBond all print ${dt_thermo} "$t ${frmbnd} ${brkbnd}" file BondData_${fName}.dat screen no
fix saveBond all print 1000000 "$t ${frmbnd} ${brkbnd}" file BondData_${fName}.dat screen no
fix saveBond all print 1000000 "$t ${frmbnd} ${brkbnd}" file BondData_Run2_Relax_Es_5kT_Ens_03kT_input.dat screen no

thermo_style    custom step epair pe ke ebond eangle temp bonds
thermo          ${dt_thermo}
thermo          1000000
fix saveThermo all print ${dt_thermo} "$t $(temp) $(ke) $(pe) $(epair) $(ebond) $(eangle) $(bonds)" file Thermo_${fName}.dat title "# Steps Temp KinEng PotEng Epair Ebond Eangle Bonds" screen no
fix saveThermo all print 1000000 "$t $(temp) $(ke) $(pe) $(epair) $(ebond) $(eangle) $(bonds)" file Thermo_${fName}.dat title "# Steps Temp KinEng PotEng Epair Ebond Eangle Bonds" screen no
fix saveThermo all print 1000000 "$t $(temp) $(ke) $(pe) $(epair) $(ebond) $(eangle) $(bonds)" file Thermo_Run2_Relax_Es_5kT_Ens_03kT_input.dat title "# Steps Temp KinEng PotEng Epair Ebond Eangle Bonds" screen no

############################ Langevin Dynamics ###############################
fix fxlan all langevin $T $T 500 ${seed}
fix fxlan all langevin 310 $T 500 ${seed}
fix fxlan all langevin 310 310 500 ${seed}
fix fxlan all langevin 310 310 500 919368
fix fxnve all nve

comm_style tiled
fix fxbal all balance 1000 1.1 rcb # load balance for spatially heterogeneous system

timestep 25

restart ${dt_data} ${fName}_tp_*.restart
restart 10000000 ${fName}_tp_*.restart
restart 10000000 Run2_Relax_Es_5kT_Ens_03kT_input_tp_*.restart
dump coor all custom ${dt_movie} traj_${fName}.dump id type mol mass x y z xu yu zu
dump coor all custom 1000000 traj_${fName}.dump id type mol mass x y z xu yu zu
dump coor all custom 1000000 traj_Run2_Relax_Es_5kT_Ens_03kT_input.dump id type mol mass x y z xu yu zu

run ${steps}
run 100000000
Neighbor list info ...
  update every 1 steps, delay 1 steps, check yes
  max neighbors/atom: 2000, page size: 100000
  master list distance cutoff = 26.9
  ghost atom cutoff = 26.9
  binsize = 13.45, bins = 38 38 38
  2 neighbor lists, perpetual/occasional/extra = 1 1 0
  (1) pair lj/cut, perpetual
      attributes: half, newton on
      pair build: half/bin/newton
      stencil: half/bin/3d/newton
      bin: standard
  (2) fix bond/create/random, occasional, copy from (1)
      attributes: half, newton on
      pair build: copy
      stencil: none
      bin: none
WARNING: Inconsistent image flags (../domain.cpp:784)
Per MPI rank memory allocation (min/avg/max) = 10.27 | 10.56 | 11.11 Mbytes
Step E_pair PotEng KinEng E_bond E_angle Temp Bonds 
300000000   -1381.8686     2859.495    4683.8198    1505.9058    2735.4577    314.32776     5291 
301000000    -1382.011    2816.5255    4575.5313    1523.1971    2675.3395     307.0606     5291 
302000000   -1410.8436    2878.0277    4553.5138    1603.7595    2685.1118    305.58302     5291 
303000000   -1388.1295    2906.1256    4645.2642    1582.3485    2711.9066    311.74032     5289 
304000000   -1380.0563    2837.8829    4617.0123    1549.8369    2668.1023    309.84436     5290 
305000000     -1364.08    2868.7081    4593.3693    1573.1548    2659.6333    308.25769     5288 
306000000   -1402.4106    2832.4195    4533.5824    1576.3851    2658.4449    304.24544     5290 
307000000   -1397.1848    2819.4617    4630.2124    1536.1589    2680.4876    310.73021     5290 
308000000    -1381.488     2856.181    4546.2355    1522.2588    2715.4102    305.09458     5291 
309000000   -1437.7475    2828.2435    4510.4782    1539.6669    2726.3241    302.69493     5291 
310000000   -1363.8579    2826.0614    4682.9937    1526.3076    2663.6116    314.27232     5291 
311000000   -1410.5844    2821.8135    4669.5197    1541.3049    2691.0929     313.3681     5291 
312000000   -1391.3016    2852.0815     4681.311    1533.2064    2710.1767     314.1594     5291 
313000000   -1380.9486    2887.6395    4630.6158    1550.4775    2718.1106    310.75728     5289 
314000000   -1368.5953    2903.2051    4715.5559    1546.7558    2725.0445    316.45755     5289 
315000000   -1393.6016     2836.357    4639.8927      1551.89    2678.0686    311.37985     5290 
316000000   -1409.5449    2844.8474    4648.2305    1544.4171    2709.9752    311.93939     5290 
317000000   -1390.7219    2915.0518    4655.4012    1618.7938    2686.9799    312.42061     5290 
318000000   -1371.9959    2871.2239    4659.1537    1567.0998      2676.12    312.67244     5292 
319000000   -1364.1293    2885.1641     4641.944    1544.3428    2704.9506    311.51751     5292 
320000000   -1353.4908    2893.3001    4654.9789    1559.8881    2686.9028    312.39227     5292 
321000000   -1364.5268     2833.798    4710.7918    1564.3342    2633.9907    316.13783     5292 
322000000   -1372.5212     2869.795     4531.786    1535.9077    2706.4085    304.12488     5292 
323000000   -1374.2125    2840.5642    4598.0129    1552.2108    2662.5659    308.56932     5294 
324000000   -1395.5141    2833.0463    4646.1104    1487.1825    2741.3779    311.79711     5294 
325000000   -1407.2524     2832.992    4578.9809    1560.4543    2679.7901     307.2921     5293 
326000000   -1359.4948    2912.0978    4651.6588     1584.465    2687.1275    312.16946     5293 
327000000   -1327.2896    2961.2471    4542.6977     1596.756    2691.7806    304.85716     5294 
328000000   -1377.0392    2882.3805     4603.834    1543.8128     2715.607    308.95997     5294 
329000000   -1374.8872    2854.6642    4688.0741      1514.81    2714.7414    314.61326     5295 
330000000   -1394.8945    2881.5861    4545.1654    1585.6213    2690.8592    305.02276     5293 
331000000   -1384.5836    2909.1468    4624.5309    1604.4819    2689.2485    310.34893     5295 
332000000   -1347.1631    2918.8811     4594.846    1549.9664    2716.0778    308.35679     5293 
333000000   -1442.8971    2883.7918    4694.8177    1594.9117    2731.7772    315.06582     5293 
334000000   -1381.1468    2814.3307    4507.1853    1593.1608    2602.3166    302.47395     5293 
335000000   -1416.5634    2814.4276    4608.4207    1536.1421    2694.8489    309.26778     5293 
336000000   -1419.1352    2806.6169    4624.7296     1486.729    2739.0231    310.36226     5294 
337000000   -1421.5488    2814.2398    4547.5508    1540.3853    2695.4032    305.18285     5293 
338000000   -1471.9461    2905.8616    4615.9263    1569.7259    2808.0817    309.77148     5294 
339000000   -1403.7144    2900.4626    4616.1156       1598.7     2705.477    309.78418     5294 
340000000   -1432.8575    2814.4636    4608.3154    1548.7857    2698.5353    309.26072     5294 
341000000   -1375.6859    2856.1908    4646.9078    1561.7202    2670.1565    311.85062     5295 
342000000   -1412.4234    2886.9299    4727.1143    1619.7613     2679.592    317.23323     5295 
343000000   -1366.2263    2869.4334     4574.133    1550.7095    2684.9502    306.96676     5295 
344000000   -1402.1947    2832.4714    4664.1384    1511.8247    2722.8414    313.00696     5295 
345000000   -1389.2862    2762.3966    4720.5098    1493.4025    2658.2803       316.79     5295 
346000000    -1351.109    2884.4829    4740.1325    1572.5905    2663.0013    318.10686     5295 
347000000   -1383.3325    2875.9933    4676.1807    1554.8634    2704.4625    313.81511     5294 
348000000    -1391.301    2829.1826    4599.2201    1554.2493    2666.2342    308.65034     5294 
349000000   -1348.7225    2836.4586    4630.6915     1588.249    2596.9321    310.76236     5295 
350000000   -1411.1922    2832.8125     4626.339    1562.2536    2681.7511    310.47027     5295 
351000000   -1402.9861    2786.8062    4603.4853    1543.1935    2646.5988    308.93657     5294 
352000000   -1386.4968    2975.0052    4580.7646     1588.971     2772.531     307.4118     5295 
353000000   -1434.5245    2822.8399     4745.147    1567.2868    2690.0775    318.44339     5296 
354000000   -1370.2754    2931.1204    4691.7725    1579.8366    2721.5592    314.86146     5295 
355000000   -1372.1969    2773.5823    4638.8823      1547.32    2598.4592    311.31204     5295 
356000000   -1411.0676    2886.5902    4541.7436     1608.062    2689.5957    304.79313     5296 
357000000   -1392.4282    2851.4062    4520.5756    1562.1836    2681.6507    303.37256     5296 
358000000   -1406.8124    2818.0896    4589.7595    1539.3535    2685.5485    308.01544     5295 
359000000   -1402.6478    2765.8672    4589.7592    1534.2724    2634.2426    308.01542     5295 
360000000    -1376.146    2854.6464    4718.0427    1563.6077    2667.1847    316.62443     5294 
361000000   -1377.8616    2925.9488    4554.5115    1597.8612    2705.9492    305.64997     5294 
362000000   -1397.3213    2911.8015    4612.5172    1546.1286    2762.9942    309.54269     5295 
363000000   -1369.8975     2855.598    4635.5013    1498.5087    2726.9869    311.08514     5295 
364000000   -1374.8864    2913.3398    4572.6447    1562.8265    2725.3998    306.86688     5294 
365000000   -1394.2577    2846.7956    4587.6272    1545.0823     2695.971    307.87234     5293 
366000000   -1374.4082    2877.3924    4603.2745    1545.9028    2705.8978    308.92243     5293 
367000000   -1416.3017    2808.6074     4561.675    1502.6803    2722.2288    306.13071     5294 
368000000   -1420.3207    2794.9382    4714.9242    1552.8239     2662.435    316.41516     5295 
369000000    -1363.586    2854.0658    4578.9576    1500.1648     2717.487    307.29054     5295 
370000000    -1407.419    2838.5465     4604.172    1541.9673    2703.9981    308.98266     5295 
371000000   -1357.0538    2863.5593    4569.7861    1523.4349    2697.1781    306.67504     5294 
372000000   -1341.7064    2819.4983    4623.7133    1523.4346    2637.7702    310.29406     5293 
373000000   -1361.1565    2885.7775    4613.8497    1564.8911     2682.043    309.63212     5292 
374000000   -1337.2161    2869.6517    4616.9834    1567.8402    2639.0276    309.84242     5294 
375000000    -1348.002    2951.0971    4628.8133    1600.2252     2698.874    310.63632     5294 
376000000   -1345.2089    2878.4241    4546.6073    1555.6241    2668.0088    305.11953     5293 
377000000   -1350.2022    2970.5607    4603.9839    1582.4053    2738.3576    308.97003     5293 
378000000   -1305.4832     2917.907    4642.5458    1512.1677    2711.2226     311.5579     5293 
379000000   -1361.7068    2893.9527    4602.6823    1595.7432    2659.9162    308.88268     5291 
380000000   -1316.9095    2949.4028     4602.929    1588.1142    2678.1981    308.89924     5291 
381000000   -1343.7526    2898.8282    4568.3443    1575.7827     2666.798    306.57828     5290 
382000000   -1348.4338    2939.2544    4542.1879    1568.8119    2718.8763    304.82295     5289 
383000000   -1365.6801    2877.9828    4550.0853    1533.9364    2709.7265    305.35293     5288 
384000000   -1371.4455     2857.702     4551.223    1570.8683    2658.2791    305.42929     5289 
385000000   -1356.4873      2930.78    4596.9804    1582.1998    2705.0675    308.50003     5291 
386000000   -1369.1843     2917.225     4581.467    1561.9449    2724.4644    307.45894     5291 
387000000    -1331.519    2930.3594    4646.7986    1558.1426    2703.7358     311.8433     5292 
388000000   -1373.1181    2918.8549    4497.2473    1547.8939    2744.0791    301.80702     5290 
389000000   -1357.0526      2931.18    4634.8549    1613.1957    2675.0369    311.04176     5290 
390000000   -1347.5503    2927.0985    4590.7835    1563.6227    2711.0261    308.08416     5289 
391000000   -1360.2636     2980.411    4616.3581    1582.1946      2758.48    309.80045     5290 
392000000   -1357.4003    2945.2067    4607.5213    1579.4712    2723.1359    309.20743     5291 
393000000   -1373.0938    2932.0577    4675.2093    1602.3183    2702.8331    313.74992     5290 
394000000   -1435.1031    2761.1151    4677.9224    1512.1771    2684.0411    313.93199     5289 
395000000   -1379.3131    2898.4158    4624.0395    1525.8674    2751.8615    310.31595     5288 
396000000   -1386.6099    2883.1243    4603.6964    1550.1264    2719.6078    308.95074     5290 
397000000   -1363.8788    2982.0021    4733.3581    1600.1299    2745.7511    317.65224     5292 
398000000    -1402.201    2835.3376    4686.8048    1529.3983    2708.1402    314.52808     5292 
399000000   -1367.1842    2870.1827    4572.7029    1518.1866    2719.1803    306.87079     5292 
400000000   -1348.8463    2978.8404    4629.7404    1591.2342    2736.4525    310.69853     5293 
Loop time of 23312.4 on 10 procs for 100000000 steps with 5000 atoms

Performance: 9265.464 ns/day, 0.003 hours/ns, 4289.566 timesteps/s
99.6% CPU use with 10 MPI tasks x no OpenMP threads

MPI task timing breakdown:
Section |  min time  |  avg time  |  max time  |%varavg| %total
---------------------------------------------------------------
Pair    | 6534.9     | 7441.9     | 8201       | 581.5 | 31.92
Bond    | 1579.2     | 1607.4     | 1631       |  44.2 |  6.89
Neigh   | 3061.5     | 3077.4     | 3100.7     |  18.6 | 13.20
Comm    | 5713.7     | 6454.9     | 7548.6     | 660.1 | 27.69
Output  | 0.6052     | 0.60526    | 0.60538    |   0.0 |  0.00
Modify  | 3616.1     | 3658.8     | 3710       |  51.2 | 15.69
Other   |            | 1071       |            |       |  4.60

Nlocal:    500 ave 531 max 482 min
Histogram: 2 1 0 4 1 1 0 0 0 1
Nghost:    612.9 ave 773 max 492 min
Histogram: 1 0 2 3 2 0 0 0 1 1
Neighs:    6882.7 ave 8169 max 5996 min
Histogram: 2 0 2 1 2 1 1 0 0 1

Total # of neighbors = 68827
Ave neighs/atom = 13.7654
Ave special neighs/atom = 7.4836
Neighbor list builds = 5039346
Dangerous builds = 0
write_restart final_state_${fName}.restart
write_restart final_state_Run2_Relax_Es_5kT_Ens_03kT_input.restart
Total wall time: 6:28:33
