
units           real
boundary p p p
atom_style      full

read_restart final_state_Relax_Es_5kT_Ens_03kT.restart
WARNING: Restart file used different # of processors (../read_restart.cpp:740)
  restoring atom style full from restart
  orthogonal box = (-250 -250 -250) to (250 250 250)
  1 by 2 by 5 MPI processor grid
  restoring pair style lj/cut from restart
  restoring bond style harmonic from restart
  restoring angle style cosine from restart
  5000 atoms
  5291 bonds
  4600 angles
  3 = max # of 1-2 neighbors
  4 = max # of 1-3 neighbors
  8 = max # of 1-4 neighbors
  16 = max # of special neighbors
  special bonds CPU = 0.0109241 secs
  read_restart CPU = 0.185028 secs

neighbor 1.9 bin
neigh_modify every 1 delay 1 check yes

angle_style  cosine
angle_coeff   *  2  # K (energy unit)

bond_style      harmonic
# bond-type, K (energy/distance^2), R0 (distance)
bond_coeff   1   3   10
bond_coeff   2   3   10
bond_coeff   3   3   11.22

pair_style lj/cut 25
# atom-typ1, atom-typ2, energy-well, sigma (bead-diameter), cut-off (distance)
pair_coeff  * * 0.18 10 25

special_bonds lj  1 1 1 angle no

variable t equal step
variable steps equal 100000000
variable dt_thermo equal 1000000
variable dt_movie equal 1000000
variable dt_data equal 10000000

group rxnSites type 1 3
1000 atoms in group rxnSites

# fix ID group-ID(atom-types) bond/create Nevery itype jtype Rmin bondtype (prob values = fraction seed) (iparam maxbond newType)
fix bondc rxnSites bond/create/random 20 1 3 12.72 3 prob 1 ${seed} iparam 1 1 jparam 1 3
fix bondc rxnSites bond/create/random 20 1 3 12.72 3 prob 1 935993 iparam 1 1 jparam 1 3

# fix ID group-ID bond/break Nevery bondtype Rmax keyword values ...
fix bondbr rxnSites bond/break 20 3 12.72 prob 1 ${seed}
fix bondbr rxnSites bond/break 20 3 12.72 prob 1 935993

variable frmbnd equal f_bondc[2]
variable brkbnd equal f_bondbr[2]
fix saveBond all print ${dt_thermo} "$t ${frmbnd} ${brkbnd}" file BondData_${fName}.dat screen no
fix saveBond all print 1000000 "$t ${frmbnd} ${brkbnd}" file BondData_${fName}.dat screen no
fix saveBond all print 1000000 "$t ${frmbnd} ${brkbnd}" file BondData_Run4_Relax_Es_5kT_Ens_03kT_input.dat screen no

thermo_style    custom step epair pe ke ebond eangle temp bonds
thermo          ${dt_thermo}
thermo          1000000
fix saveThermo all print ${dt_thermo} "$t $(temp) $(ke) $(pe) $(epair) $(ebond) $(eangle) $(bonds)" file Thermo_${fName}.dat title "# Steps Temp KinEng PotEng Epair Ebond Eangle Bonds" screen no
fix saveThermo all print 1000000 "$t $(temp) $(ke) $(pe) $(epair) $(ebond) $(eangle) $(bonds)" file Thermo_${fName}.dat title "# Steps Temp KinEng PotEng Epair Ebond Eangle Bonds" screen no
fix saveThermo all print 1000000 "$t $(temp) $(ke) $(pe) $(epair) $(ebond) $(eangle) $(bonds)" file Thermo_Run4_Relax_Es_5kT_Ens_03kT_input.dat title "# Steps Temp KinEng PotEng Epair Ebond Eangle Bonds" screen no

############################ Langevin Dynamics ###############################
fix fxlan all langevin $T $T 500 ${seed}
fix fxlan all langevin 310 $T 500 ${seed}
fix fxlan all langevin 310 310 500 ${seed}
fix fxlan all langevin 310 310 500 935993
fix fxnve all nve

comm_style tiled
fix fxbal all balance 1000 1.1 rcb # load balance for spatially heterogeneous system

timestep 25

restart ${dt_data} ${fName}_tp_*.restart
restart 10000000 ${fName}_tp_*.restart
restart 10000000 Run4_Relax_Es_5kT_Ens_03kT_input_tp_*.restart
dump coor all custom ${dt_movie} traj_${fName}.dump id type mol mass x y z xu yu zu
dump coor all custom 1000000 traj_${fName}.dump id type mol mass x y z xu yu zu
dump coor all custom 1000000 traj_Run4_Relax_Es_5kT_Ens_03kT_input.dump id type mol mass x y z xu yu zu

run ${steps}
run 100000000
Neighbor list info ...
  update every 1 steps, delay 1 steps, check yes
  max neighbors/atom: 2000, page size: 100000
  master list distance cutoff = 26.9
  ghost atom cutoff = 26.9
  binsize = 13.45, bins = 38 38 38
  2 neighbor lists, perpetual/occasional/extra = 1 1 0
  (1) pair lj/cut, perpetual
      attributes: half, newton on
      pair build: half/bin/newton
      stencil: half/bin/3d/newton
      bin: standard
  (2) fix bond/create/random, occasional, copy from (1)
      attributes: half, newton on
      pair build: copy
      stencil: none
      bin: none
WARNING: Inconsistent image flags (../domain.cpp:784)
Per MPI rank memory allocation (min/avg/max) = 10.27 | 10.56 | 11.11 Mbytes
Step E_pair PotEng KinEng E_bond E_angle Temp Bonds 
300000000   -1381.8686     2859.495    4683.8198    1505.9058    2735.4577    314.32776     5291 
301000000   -1396.1408    2879.4162    4653.3343    1588.7086    2686.8484     312.2819     5290 
302000000   -1412.3909     2943.149    4669.5286    1631.7142    2723.8257    313.36869     5290 
303000000   -1418.4707    2770.7841    4518.5438    1518.5316    2670.7232    303.23621     5291 
304000000   -1369.7108    2887.4149    4682.5209    1541.9295    2715.1961    314.24059     5291 
305000000   -1390.7581     2922.874    4730.5337    1595.2057    2718.4264     317.4627     5292 
306000000   -1374.9194    2765.8704    4593.6315    1521.4597    2619.3301    308.27529     5291 
307000000   -1422.6137    2890.2528    4548.4684    1592.2409    2720.6256    305.24443     5291 
308000000    -1390.959    2838.8724    4625.6838     1557.566    2672.2654     310.4263     5290 
309000000   -1402.8539    2803.7975    4507.1668    1509.9946    2696.6568    302.47271     5291 
310000000   -1372.0691    2956.7449    4624.9956    1589.2404    2739.5736    310.38011     5291 
311000000   -1425.5194    2834.9305    4736.0045    1568.2034    2692.2464    317.82984     5292 
312000000   -1369.6084    2862.2186    4574.1832    1547.6577    2684.1693    306.97013     5292 
313000000   -1416.6079    2818.6193    4606.4954    1547.3445    2687.8827    309.13858     5293 
314000000   -1420.5813    2799.9996    4600.1165    1497.3942    2723.1867    308.71049     5293 
315000000   -1459.5168    2810.8372     4595.723    1583.8115    2686.5426    308.41565     5293 
316000000   -1419.7009    2860.3961     4565.899    1565.3625    2714.7345    306.41418     5294 
317000000    -1429.731    2827.3634    4676.7751    1566.8797    2690.2146      313.855     5293 
318000000   -1387.3962    2935.2254    4657.5997    1601.4245     2721.197    312.56815     5294 
319000000   -1410.3339     2816.037    4509.7233    1584.9281    2641.4428    302.64427     5294 
320000000    -1381.554     2830.619     4706.566    1556.3751    2655.7979    315.85424     5294 
321000000   -1405.8612    2871.1783     4655.637     1570.249    2706.7906    312.43644     5294 
322000000   -1386.4054    2874.3044    4585.9924     1521.919    2738.7907    307.76263     5292 
323000000   -1386.2496     2827.821    4607.3702    1531.3097    2682.7609    309.19729     5294 
324000000   -1421.4451    2802.4971    4628.4859    1578.7832     2645.159    310.61434     5294 
325000000   -1386.7677    2841.6306    4744.3654    1533.3737    2695.0246    318.39093     5294 
326000000   -1374.4922    2851.0054    4637.8712    1559.5135    2665.9841    311.24419     5293 
327000000   -1393.6598    2873.1758    4708.5449    1560.2465     2706.589    315.98704     5293 
328000000   -1411.0293    2968.6145    4576.9351    1600.1566    2779.4873    307.15481     5293 
329000000   -1438.6704    2832.4902    4630.9283      1518.62    2752.5407    310.77825     5292 
330000000   -1405.6221    2828.9244    4567.6354    1518.3342    2716.2123    306.53071     5292 
331000000   -1437.8822    2902.2733    4597.1939    1564.6501    2775.5054    308.51436     5292 
332000000   -1368.6959    2834.9126    4552.1448     1506.481    2697.1275    305.49115     5291 
333000000     -1392.84    2842.3554    4698.7162    1544.1096    2691.0858    315.32745     5290 
334000000   -1350.7311    2943.5991    4609.2644    1594.2105    2700.1197     309.3244     5292 
335000000     -1396.29    2826.5977    4641.1925    1589.1547     2633.733    311.46708     5292 
336000000   -1387.0886    2810.3202      4655.87    1566.1892    2631.2196    312.45207     5291 
337000000   -1364.9829    2933.9587    4633.9667    1563.8381    2735.1035    310.98216     5289 
338000000   -1415.9137    2938.6667    4677.1055    1616.7272    2737.8531    313.87717     5291 
339000000   -1429.7781    2784.5646    4531.5351    1520.2078    2694.1349    304.10804     5291 
340000000   -1376.6871    2854.5719     4669.523    1529.0515    2702.2075    313.36832     5291 
341000000   -1385.9986    2901.3553    4662.7967    1543.6761    2743.6778    312.91692     5292 
342000000   -1381.9155    2800.4681    4576.0942    1524.3477    2658.0359    307.09838     5290 
343000000   -1361.6026    2921.6412    4689.7794    1609.5315    2673.7122     314.7277     5291 
344000000   -1314.2441    2892.0508     4592.449    1539.9007    2666.3943    308.19594     5292 
345000000   -1406.1586    2856.2612     4581.443    1563.3448     2699.075    307.45733     5292 
346000000   -1347.9462    2829.4917    4648.8716    1478.6257    2698.8122    311.98242     5292 
347000000   -1367.9146    2764.4989    4595.2472    1478.8594    2653.5541    308.38372     5291 
348000000   -1307.7948    2923.6359    4598.1081    1564.3802    2667.0505    308.57571     5291 
349000000   -1350.8373    2970.7181    4602.2853    1584.0593    2737.4961    308.85604     5291 
350000000   -1344.2296    2892.8211    4658.1598    1556.6912    2680.3596    312.60574     5291 
351000000   -1375.9075    2908.0243     4598.368    1564.1588     2719.773    308.59315     5291 
352000000   -1393.7565    2871.1521    4738.9921    1546.1192    2718.7894    318.03033     5290 
353000000   -1399.0357    2888.1306    4571.5358    1614.7187    2672.4476    306.79246     5289 
354000000   -1409.5988    2772.0838    4619.5718    1528.2525    2653.4301    310.01612     5290 
355000000   -1345.5447    2842.8194    4587.9793    1521.3475    2667.0166    307.89597     5290 
356000000   -1347.1773     2823.074    4668.0767    1476.3915    2693.8598    313.27125     5290 
357000000   -1333.2894    2904.4621    4619.9389    1542.6197    2695.1318    310.04076     5288 
358000000   -1348.0725    2932.9671    4607.0499    1573.9592    2707.0803    309.17579     5291 
359000000   -1359.7564       2916.2    4560.1272    1564.1237    2711.8327    306.02684     5290 
360000000   -1339.8139    2973.0587    4652.9227     1568.996    2743.8767    312.25428     5288 
361000000   -1401.9879    2825.4084    4623.4207     1526.621    2700.7753    310.27442     5288 
362000000   -1382.5427     2863.733    4659.5956    1520.7841    2725.4915    312.70209     5290 
363000000   -1369.5169    2893.1033    4614.9633    1587.0282     2675.592    309.70685     5289 
364000000   -1392.2165    2910.3196    4677.9078    1562.1504    2740.3857    313.93101     5291 
365000000   -1374.2221    2960.2695    4653.5727    1564.2781    2770.2134     312.2979     5291 
366000000   -1367.4558    2920.7518    4690.4674    1567.3762    2720.8314    314.77388     5293 
367000000   -1349.7684    2903.1426    4720.7076    1554.6697    2698.2413    316.80328     5293 
368000000   -1343.6245    2951.8232     4561.401    1578.6521    2716.7956    306.11233     5293 
369000000   -1409.3755    2845.0485    4603.1235    1564.8856    2689.5383    308.91229     5294 
370000000    -1412.333    2894.5119    4751.9031    1564.9183    2741.9265    318.89678     5292 
371000000   -1367.7599    2918.6681    4619.3552    1592.9557    2693.4724    310.00159     5294 
372000000   -1353.8134    2929.9391    4559.5104    1563.2122    2720.5403    305.98545     5293 
373000000   -1360.2044    2910.9475    4564.3516    1543.6202    2727.5317    306.31034     5291 
374000000   -1361.0826    2923.8866    4705.7348    1520.1101    2764.8591    315.79846     5292 
375000000   -1356.1043    3002.4269    4624.3423    1629.3495    2729.1817    310.33627     5292 
376000000   -1359.8536    2864.7925    4528.1188    1518.4653    2706.1808    303.87878     5290 
377000000   -1384.4332    2904.0638    4616.0857    1603.4115    2685.0856    309.78217     5290 
378000000   -1372.9124    2926.2161    4670.8386    1595.2202    2703.9082     313.4566     5290 
379000000   -1312.9692    3001.0322    4573.1281    1606.7501    2707.2513    306.89932     5290 
380000000   -1343.8199    3001.3339    4576.7072    1556.6051    2788.5487    307.13951     5289 
381000000   -1337.8002    2825.1477    4587.9274    1490.6954    2672.2525    307.89249     5291 
382000000   -1390.0204    2830.8678    4561.5469    1533.2175    2687.6707    306.12212     5292 
383000000    -1366.513    2893.0009    4678.9878    1555.0964    2704.4175    314.00349     5293 
384000000   -1402.6027    2821.7182    4646.8367    1513.9788    2710.3421    311.84585     5291 
385000000   -1343.2268    2959.6868    4617.9631    1582.4724    2720.4412    309.90817     5292 
386000000   -1388.1063    2855.1346    4518.3573    1581.4768    2661.7641     303.2237     5291 
387000000   -1402.6906    2856.4386    4566.7558    1561.5024    2697.6267    306.47168     5292 
388000000   -1381.1729    2902.8508    4646.3014    1553.8891    2730.1347    311.80993     5291 
389000000   -1375.4325    2957.7004    4749.6562    1550.9109    2782.2219      318.746     5291 
390000000   -1392.9875     2895.072    4656.7672    1560.9631    2727.0964    312.51228     5293 
391000000   -1345.7149    2878.7534    4557.2977    1578.6898    2645.7785    305.83695     5293 
392000000   -1381.7567    2843.0651    4640.7552    1547.0872    2677.7345    311.43772     5292 
393000000   -1359.4977     2887.017     4666.149    1519.2344    2727.2804    313.14189     5293 
394000000    -1373.991    2898.6452     4572.577    1573.4831    2699.1531    306.86234     5291 
395000000   -1383.2126    2943.4711    4610.1861    1594.1086    2732.5751    309.38626     5292 
396000000   -1365.5368    2885.4425    4623.5448    1535.3729    2715.6064    310.28275     5291 
397000000   -1362.2398    2866.4731    4708.3521    1525.5402    2703.1727    315.97411     5291 
398000000   -1380.0195     2879.228    4550.9244    1498.6641    2760.5834    305.40925     5291 
399000000   -1331.7524    2976.1512    4647.9164    1564.7443    2743.1593    311.91831     5287 
400000000    -1324.356    2933.9069    4547.1478    1604.1615    2654.1014     305.1558     5288 
Loop time of 22502.3 on 10 procs for 100000000 steps with 5000 atoms

Performance: 9599.004 ns/day, 0.003 hours/ns, 4443.983 timesteps/s
99.7% CPU use with 10 MPI tasks x no OpenMP threads

MPI task timing breakdown:
Section |  min time  |  avg time  |  max time  |%varavg| %total
---------------------------------------------------------------
Pair    | 6557.9     | 7353.5     | 8139.9     | 622.8 | 32.68
Bond    | 1576.7     | 1596.6     | 1622.5     |  31.5 |  7.10
Neigh   | 3011.5     | 3029.8     | 3050.7     |  24.0 | 13.46
Comm    | 4989       | 5965.6     | 7114.5     | 843.5 | 26.51
Output  | 0.98672    | 0.98681    | 0.98692    |   0.0 |  0.00
Modify  | 3555.5     | 3586.7     | 3611.5     |  25.6 | 15.94
Other   |            | 969.2      |            |       |  4.31

Nlocal:    500 ave 529 max 434 min
Histogram: 1 0 0 0 1 2 0 0 3 3
Nghost:    629.4 ave 854 max 439 min
Histogram: 1 1 1 1 3 1 0 0 1 1
Neighs:    6774.7 ave 8066 max 5794 min
Histogram: 1 0 2 2 2 0 1 1 0 1

Total # of neighbors = 67747
Ave neighs/atom = 13.5494
Ave special neighs/atom = 7.4732
Neighbor list builds = 5039383
Dangerous builds = 0
write_restart final_state_${fName}.restart
write_restart final_state_Run4_Relax_Es_5kT_Ens_03kT_input.restart
Total wall time: 6:15:03
