
units           real
boundary p p p
atom_style      full

read_restart final_state_Relax_Es_5kT_Ens_03kT.restart
WARNING: Restart file used different # of processors (../read_restart.cpp:740)
  restoring atom style full from restart
  orthogonal box = (-250 -250 -250) to (250 250 250)
  1 by 2 by 5 MPI processor grid
  restoring pair style lj/cut from restart
  restoring bond style harmonic from restart
  restoring angle style cosine from restart
  5000 atoms
  5291 bonds
  4600 angles
  3 = max # of 1-2 neighbors
  4 = max # of 1-3 neighbors
  8 = max # of 1-4 neighbors
  16 = max # of special neighbors
  special bonds CPU = 0.00601349 secs
  read_restart CPU = 0.0984107 secs

neighbor 1.9 bin
neigh_modify every 1 delay 1 check yes

angle_style  cosine
angle_coeff   *  2  # K (energy unit)

bond_style      harmonic
# bond-type, K (energy/distance^2), R0 (distance)
bond_coeff   1   3   10
bond_coeff   2   3   10
bond_coeff   3   3   11.22

pair_style lj/cut 25
# atom-typ1, atom-typ2, energy-well, sigma (bead-diameter), cut-off (distance)
pair_coeff  * * 0.18 10 25

special_bonds lj  1 1 1 angle no

variable t equal step
variable steps equal 100000000
variable dt_thermo equal 1000000
variable dt_movie equal 1000000
variable dt_data equal 10000000

group rxnSites type 1 3
1000 atoms in group rxnSites

# fix ID group-ID(atom-types) bond/create Nevery itype jtype Rmin bondtype (prob values = fraction seed) (iparam maxbond newType)
fix bondc rxnSites bond/create/random 20 1 3 12.72 3 prob 1 ${seed} iparam 1 1 jparam 1 3
fix bondc rxnSites bond/create/random 20 1 3 12.72 3 prob 1 158796 iparam 1 1 jparam 1 3

# fix ID group-ID bond/break Nevery bondtype Rmax keyword values ...
fix bondbr rxnSites bond/break 20 3 12.72 prob 1 ${seed}
fix bondbr rxnSites bond/break 20 3 12.72 prob 1 158796

variable frmbnd equal f_bondc[2]
variable brkbnd equal f_bondbr[2]
fix saveBond all print ${dt_thermo} "$t ${frmbnd} ${brkbnd}" file BondData_${fName}.dat screen no
fix saveBond all print 1000000 "$t ${frmbnd} ${brkbnd}" file BondData_${fName}.dat screen no
fix saveBond all print 1000000 "$t ${frmbnd} ${brkbnd}" file BondData_Run8_Relax_Es_5kT_Ens_03kT_input.dat screen no

thermo_style    custom step epair pe ke ebond eangle temp bonds
thermo          ${dt_thermo}
thermo          1000000
fix saveThermo all print ${dt_thermo} "$t $(temp) $(ke) $(pe) $(epair) $(ebond) $(eangle) $(bonds)" file Thermo_${fName}.dat title "# Steps Temp KinEng PotEng Epair Ebond Eangle Bonds" screen no
fix saveThermo all print 1000000 "$t $(temp) $(ke) $(pe) $(epair) $(ebond) $(eangle) $(bonds)" file Thermo_${fName}.dat title "# Steps Temp KinEng PotEng Epair Ebond Eangle Bonds" screen no
fix saveThermo all print 1000000 "$t $(temp) $(ke) $(pe) $(epair) $(ebond) $(eangle) $(bonds)" file Thermo_Run8_Relax_Es_5kT_Ens_03kT_input.dat title "# Steps Temp KinEng PotEng Epair Ebond Eangle Bonds" screen no

############################ Langevin Dynamics ###############################
fix fxlan all langevin $T $T 500 ${seed}
fix fxlan all langevin 310 $T 500 ${seed}
fix fxlan all langevin 310 310 500 ${seed}
fix fxlan all langevin 310 310 500 158796
fix fxnve all nve

comm_style tiled
fix fxbal all balance 1000 1.1 rcb # load balance for spatially heterogeneous system

timestep 25

restart ${dt_data} ${fName}_tp_*.restart
restart 10000000 ${fName}_tp_*.restart
restart 10000000 Run8_Relax_Es_5kT_Ens_03kT_input_tp_*.restart
dump coor all custom ${dt_movie} traj_${fName}.dump id type mol mass x y z xu yu zu
dump coor all custom 1000000 traj_${fName}.dump id type mol mass x y z xu yu zu
dump coor all custom 1000000 traj_Run8_Relax_Es_5kT_Ens_03kT_input.dump id type mol mass x y z xu yu zu

run ${steps}
run 100000000
Neighbor list info ...
  update every 1 steps, delay 1 steps, check yes
  max neighbors/atom: 2000, page size: 100000
  master list distance cutoff = 26.9
  ghost atom cutoff = 26.9
  binsize = 13.45, bins = 38 38 38
  2 neighbor lists, perpetual/occasional/extra = 1 1 0
  (1) pair lj/cut, perpetual
      attributes: half, newton on
      pair build: half/bin/newton
      stencil: half/bin/3d/newton
      bin: standard
  (2) fix bond/create/random, occasional, copy from (1)
      attributes: half, newton on
      pair build: copy
      stencil: none
      bin: none
WARNING: Inconsistent image flags (../domain.cpp:784)
Per MPI rank memory allocation (min/avg/max) = 10.27 | 10.56 | 11.11 Mbytes
Step E_pair PotEng KinEng E_bond E_angle Temp Bonds 
300000000   -1381.8686     2859.495    4683.8198    1505.9058    2735.4577    314.32776     5291 
301000000   -1382.4906    2879.2317    4696.4368    1551.8675    2709.8548    315.17448     5291 
302000000   -1379.1514    2913.8155    4510.8112    1554.9528    2738.0142    302.71728     5291 
303000000   -1423.4639    2901.3308    4596.4461    1557.3967     2767.398    308.46418     5291 
304000000   -1403.0458      2903.05    4646.7481    1591.1691    2714.9267    311.83991     5292 
305000000    -1370.209    2939.6275    4612.1824    1547.6585     2762.178    309.52023     5292 
306000000     -1349.78    2799.7632    4645.7372    1495.4373    2654.1059    311.77207     5291 
307000000   -1427.1123    2807.1647    4557.2146    1534.3555    2699.9215    305.83138     5289 
308000000   -1408.2627    2760.2427    4676.5514     1572.791    2595.7144    313.83999     5290 
309000000   -1424.5605    2757.5219    4695.5878    1541.4388    2640.6435     315.1175     5290 
310000000   -1405.6479    2922.9836    4582.0232    1578.3746    2750.2569    307.49626     5290 
311000000   -1429.7053    2762.0898    4654.9027    1503.3866    2688.4084    312.38716     5290 
312000000   -1412.0115    2872.8305    4581.1991    1573.1111    2711.7309    307.44096     5292 
313000000   -1380.9197    2919.1546    4612.0954    1588.7239    2711.3505    309.51439     5291 
314000000   -1356.6738    2941.1427    4511.3911     1584.734    2713.0826     302.7562     5292 
315000000   -1367.0654    2866.9643    4559.2507    1572.0897    2661.9399    305.96802     5291 
316000000   -1394.9871    2893.3578    4677.1215    1531.6389    2756.7059    313.87824     5293 
317000000   -1411.9233    2905.8091    4637.8544    1619.5558    2698.1765    311.24305     5293 
318000000   -1388.5792    2917.3021    4582.1106    1589.7867    2716.0946    307.50213     5293 
319000000   -1371.3803    2922.2329    4595.9852    1575.6613    2717.9518    308.43325     5292 
320000000   -1390.3198    2884.1837    4585.6698    1551.6504    2722.8531    307.74099     5293 
321000000    -1424.455    2881.8935    4659.1513      1596.42    2709.9286    312.67228     5291 
322000000   -1371.3868    2850.6349    4670.0285    1555.2836    2666.7381    313.40223     5292 
323000000   -1365.4829    2897.7518    4559.8967    1544.4321    2718.8025    306.01137     5292 
324000000   -1395.1219    2867.0162    4584.4309    1584.1656    2677.9725    307.65784     5290 
325000000   -1371.3254    2849.6041    4677.7986    1545.8066    2675.1229    313.92368     5290 
326000000   -1353.3148    2872.7357    4579.7712    1572.5421    2653.5085    307.34514     5291 
327000000   -1360.7838    2949.3453    4625.2229    1587.1822    2722.9468    310.39536     5290 
328000000   -1406.7528     2906.566    4633.4508    1574.2051    2739.1136    310.94754     5290 
329000000   -1397.6254     2959.695    4579.0272    1591.6269    2765.6936    307.29521     5289 
330000000   -1390.4272    2897.7709    4605.5916    1586.5952    2701.6029    309.07792     5288 
331000000   -1358.8697     2828.323    4596.6261    1511.2692    2675.9235    308.47625     5290 
332000000   -1408.1911    2848.6126    4666.9712    1535.9221    2720.8816    313.19706     5291 
333000000   -1391.9587    2911.7184    4656.4515    1545.0741     2758.603    312.49109     5290 
334000000   -1385.3775    2886.9525    4587.2753    1563.1768    2709.1532    307.84873     5292 
335000000    -1395.701    2814.7984    4632.7816     1506.847    2703.6524    310.90263     5292 
336000000   -1389.8871     2902.427    4656.9419    1580.5094    2711.8047      312.524     5291 
337000000   -1366.3977    2966.4505    4542.3919    1577.0083    2755.8399    304.83663     5292 
338000000   -1402.8694    2870.1881    4588.2708     1507.688    2765.3695    307.91554     5290 
339000000     -1350.37     2914.278     4566.945    1572.4984    2692.1496    306.48438     5291 
340000000   -1365.6593    2944.8508    4547.1418    1585.3599    2725.1503     305.1554     5293 
341000000   -1362.8819    2888.2035    4718.6679    1587.7946    2663.2908    316.66639     5292 
342000000   -1337.2375    2898.6786    4715.0887     1565.761     2670.155    316.42619     5291 
343000000   -1387.8334    2807.5634    4556.2984    1532.7822    2662.6146    305.76989     5293 
344000000   -1362.3277    2867.7723    4634.7712    1577.0211    2653.0789    311.03615     5293 
345000000   -1396.0457    2859.6073       4623.7    1580.2767    2675.3763    310.29316     5292 
346000000   -1367.5147    2805.0737    4603.6779    1513.5366    2659.0518     308.9495     5291 
347000000   -1363.3975    2920.2391    4652.5471    1560.6132    2723.0235    312.22907     5292 
348000000   -1368.6155    2835.9363    4659.0229    1529.0244    2675.5274    312.66366     5294 
349000000   -1389.4817    2881.0243    4625.2588    1519.8151    2750.6909    310.39777     5292 
350000000   -1359.8094     2883.866     4622.139    1558.3981    2685.2773     310.1884     5292 
351000000   -1381.2943    2851.8022    4569.1439    1555.4382    2677.6584    306.63195     5294 
352000000   -1393.5192    2900.9999    4632.9261    1567.1007    2727.4184    310.91232     5293 
353000000    -1385.799    2888.1841    4704.2489    1545.1795    2728.8036    315.69874     5294 
354000000   -1396.6565    2878.5509    4549.9712    1619.8938    2655.3136    305.34528     5293 
355000000   -1358.9623    2959.2116    4684.2162    1598.7884    2719.3855    314.35437     5293 
356000000   -1366.8365    2853.9909    4608.9131     1512.334    2708.4935    309.30083     5291 
357000000   -1366.5294    2910.2666    4623.8291    1522.0903    2754.7057    310.30183     5293 
358000000   -1384.1577    2845.4201    4601.9218    1516.6786    2712.8993    308.83164     5292 
359000000   -1398.4416    2868.7136     4610.934    1571.6046    2695.5507    309.43645     5292 
360000000   -1379.1659    2947.1252    4605.1112    1565.3376    2760.9535    309.04568     5292 
361000000   -1340.7844    2840.1957    4653.7596    1543.1906    2637.7895    312.31044     5293 
362000000   -1340.4614    2875.0469    4628.1154    1502.0221    2713.4861    310.58948     5293 
363000000   -1369.1338    2879.6843    4620.9043    1517.1099    2731.7082    310.10555     5292 
364000000   -1356.5561    2927.0901    4657.8899    1590.2187    2693.4275    312.58763     5292 
365000000    -1320.576    2957.0243    4674.6953     1609.946    2667.6542    313.71543     5292 
366000000   -1337.2904    2962.7354    4702.0138    1570.9134    2729.1124    315.54874     5292 
367000000   -1439.9286    2784.6134    4602.6464    1541.7558    2682.7862    308.88027     5293 
368000000     -1346.91    2888.9836    4662.1685     1538.835    2697.0586    312.87476     5292 
369000000   -1394.7114    2930.6203    4600.1551     1536.323    2789.0087    308.71309     5291 
370000000   -1408.4733    2849.8794    4737.9565    1517.2549    2741.0978    317.96084     5290 
371000000   -1374.0241    2959.3728    4616.1508    1621.0011    2712.3958    309.78654     5292 
372000000    -1411.083     2822.383    4620.6653    1544.9304    2688.5357    310.08951     5290 
373000000   -1305.6147    2952.6225    4661.0733     1580.135    2678.1021    312.80126     5292 
374000000   -1379.4732     2926.769     4627.227    1586.9472     2719.295    310.52986     5291 
375000000   -1386.5775    2879.1857    4626.6953    1549.0351    2716.7281    310.49418     5292 
376000000    -1390.498    2829.9221    4623.3968     1508.344    2712.0761    310.27282     5292 
377000000   -1310.4009     2969.466    4607.9644     1573.874     2705.993    309.23716     5293 
378000000   -1361.8044    2940.1867    4554.6365    1589.5762    2712.4149    305.65836     5291 
379000000    -1365.137    2877.9812    4494.4727      1553.84    2689.2782    301.62081     5292 
380000000   -1383.4662    2841.9736    4526.1864    1540.7393    2684.7005     303.7491     5291 
381000000   -1359.9866    2868.9769    4615.4476    1548.4394    2680.5241    309.73935     5293 
382000000   -1341.3441    2896.4447    4604.9021    1564.2935    2673.4952    309.03165     5294 
383000000   -1344.3511     2901.198    4569.8551    1559.0957    2686.4533    306.67967     5293 
384000000   -1400.1501    2860.7465    4705.7948     1555.708    2705.1886    315.80249     5294 
385000000   -1388.1194    2897.1749    4692.0575    1558.5286    2726.7657    314.88059     5293 
386000000   -1374.4864    2897.9412    4616.6391    1580.3755     2692.052    309.81932     5291 
387000000   -1444.9848    2830.6164    4615.7155    1537.5564    2738.0448    309.75733     5291 
388000000   -1398.2348    2884.6431    4584.3157      1562.51    2720.3679    307.65011     5292 
389000000   -1357.4578    2967.2791      4663.58    1589.7672    2734.9697    312.96949     5292 
390000000   -1360.3618    2994.9866    4550.1379    1579.7307    2775.6177    305.35647     5292 
391000000   -1373.8053    2872.2965    4581.1125    1584.3453    2661.7564    307.43515     5293 
392000000   -1348.0763    2864.1432    4692.4604     1532.066    2680.1535    314.90763     5293 
393000000    -1369.077    2877.3882    4664.1037    1550.1859    2696.2793    313.00463     5293 
394000000   -1376.4899    2883.7055    4519.7306    1612.4003    2647.7951    303.31585     5293 
395000000    -1337.307    2931.5788    4581.0953     1548.786    2720.0998    307.43399     5291 
396000000   -1372.3599     2945.431    4586.7835    1586.8257    2730.9652    307.81572     5292 
397000000   -1332.8783    2967.2291    4689.8163    1566.9622    2733.1452    314.73018     5292 
398000000   -1349.5028    2880.6187    4599.7752    1524.7722    2705.3493    308.68759     5293 
399000000   -1360.8964    2933.8759    4549.1707    1573.7697    2721.0025    305.29156     5293 
400000000   -1325.1743    2905.3532    4613.5393    1544.0595     2686.468    309.61129     5293 
Loop time of 22158.4 on 10 procs for 100000000 steps with 5000 atoms

Performance: 9747.989 ns/day, 0.002 hours/ns, 4512.958 timesteps/s
99.7% CPU use with 10 MPI tasks x no OpenMP threads

MPI task timing breakdown:
Section |  min time  |  avg time  |  max time  |%varavg| %total
---------------------------------------------------------------
Pair    | 6316.5     | 7389.2     | 8342.3     | 638.2 | 33.35
Bond    | 1577.5     | 1592.3     | 1623.9     |  36.1 |  7.19
Neigh   | 3022.8     | 3041.3     | 3057.9     |  19.7 | 13.73
Comm    | 4887.3     | 5862       | 7210.5     | 840.7 | 26.45
Output  | 0.51955    | 0.51973    | 0.51982    |   0.0 |  0.00
Modify  | 3451.9     | 3473.3     | 3546.4     |  46.5 | 15.68
Other   |            | 799.6      |            |       |  3.61

Nlocal:    500 ave 540 max 475 min
Histogram: 2 0 1 2 3 1 0 0 0 1
Nghost:    609.9 ave 752 max 528 min
Histogram: 2 3 1 0 1 0 1 1 0 1
Neighs:    6977.1 ave 8033 max 6007 min
Histogram: 2 0 1 1 1 2 1 1 0 1

Total # of neighbors = 69771
Ave neighs/atom = 13.9542
Ave special neighs/atom = 7.484
Neighbor list builds = 5039236
Dangerous builds = 0
write_restart final_state_${fName}.restart
write_restart final_state_Run8_Relax_Es_5kT_Ens_03kT_input.restart
Total wall time: 6:09:18
