
units           real
boundary p p p
atom_style      full

read_restart final_state_Relax_Es_3kT_Ens_03kT.restart
  restoring atom style full from restart
  orthogonal box = (-500 -500 -500) to (500 500 500)
  1 by 2 by 5 MPI processor grid
  restoring pair style lj/cut from restart
  restoring bond style harmonic from restart
  restoring angle style cosine from restart
  5000 atoms
  5225 bonds
  4600 angles
  3 = max # of 1-2 neighbors
  4 = max # of 1-3 neighbors
  8 = max # of 1-4 neighbors
  16 = max # of special neighbors
  special bonds CPU = 0.000892968 secs
  read_restart CPU = 0.0128297 secs

neighbor 1.9 bin
neigh_modify every 1 delay 1 check yes

angle_style  cosine
angle_coeff   *  2  # K (energy unit)

bond_style      harmonic
# bond-type, K (energy/distance^2), R0 (distance)
bond_coeff   1   3   10
bond_coeff   2   3   10
bond_coeff   3   1.8   11.22

pair_style lj/cut 25
# atom-typ1, atom-typ2, energy-well, sigma (bead-diameter), cut-off (distance)
pair_coeff  * * 0.18 10 25

special_bonds lj  1 1 1 angle no

variable t equal step
variable steps equal 100000000
variable dt_thermo equal 1000000
variable dt_movie equal 1000000
variable dt_data equal 10000000

group rxnSites type 1 3
1000 atoms in group rxnSites

# fix ID group-ID(atom-types) bond/create Nevery itype jtype Rmin bondtype (prob values = fraction seed) (iparam maxbond newType)
fix bondc rxnSites bond/create/random 20 1 3 12.72 3 prob 1 ${seed} iparam 1 1 jparam 1 3
fix bondc rxnSites bond/create/random 20 1 3 12.72 3 prob 1 176123 iparam 1 1 jparam 1 3

# fix ID group-ID bond/break Nevery bondtype Rmax keyword values ...
fix bondbr rxnSites bond/break 20 3 12.72 prob 1 ${seed}
fix bondbr rxnSites bond/break 20 3 12.72 prob 1 176123

variable frmbnd equal f_bondc[2]
variable brkbnd equal f_bondbr[2]
fix saveBond all print ${dt_thermo} "$t ${frmbnd} ${brkbnd}" file BondData_${fName}.dat screen no
fix saveBond all print 1000000 "$t ${frmbnd} ${brkbnd}" file BondData_${fName}.dat screen no
fix saveBond all print 1000000 "$t ${frmbnd} ${brkbnd}" file BondData_Run2_Relax_Es_3kT_Ens_03kT_input.dat screen no

thermo_style    custom step epair pe ke ebond eangle temp bonds
thermo          ${dt_thermo}
thermo          1000000
fix saveThermo all print ${dt_thermo} "$t $(temp) $(ke) $(pe) $(epair) $(ebond) $(eangle) $(bonds)" file Thermo_${fName}.dat title "# Steps Temp KinEng PotEng Epair Ebond Eangle Bonds" screen no
fix saveThermo all print 1000000 "$t $(temp) $(ke) $(pe) $(epair) $(ebond) $(eangle) $(bonds)" file Thermo_${fName}.dat title "# Steps Temp KinEng PotEng Epair Ebond Eangle Bonds" screen no
fix saveThermo all print 1000000 "$t $(temp) $(ke) $(pe) $(epair) $(ebond) $(eangle) $(bonds)" file Thermo_Run2_Relax_Es_3kT_Ens_03kT_input.dat title "# Steps Temp KinEng PotEng Epair Ebond Eangle Bonds" screen no

############################ Langevin Dynamics ###############################
fix fxlan all langevin $T $T 500 ${seed}
fix fxlan all langevin 310 $T 500 ${seed}
fix fxlan all langevin 310 310 500 ${seed}
fix fxlan all langevin 310 310 500 176123
fix fxnve all nve

comm_style tiled
fix fxbal all balance 1000 1.1 rcb # load balance for spatially heterogeneous system

timestep 25

restart ${dt_data} ${fName}_tp_*.restart
restart 10000000 ${fName}_tp_*.restart
restart 10000000 Run2_Relax_Es_3kT_Ens_03kT_input_tp_*.restart
dump coor all custom ${dt_movie} traj_${fName}.dump id type mol mass x y z xu yu zu
dump coor all custom 1000000 traj_${fName}.dump id type mol mass x y z xu yu zu
dump coor all custom 1000000 traj_Run2_Relax_Es_3kT_Ens_03kT_input.dump id type mol mass x y z xu yu zu

run ${steps}
run 100000000
Neighbor list info ...
  update every 1 steps, delay 1 steps, check yes
  max neighbors/atom: 2000, page size: 100000
  master list distance cutoff = 26.9
  ghost atom cutoff = 26.9
  binsize = 13.45, bins = 75 75 75
  2 neighbor lists, perpetual/occasional/extra = 1 1 0
  (1) pair lj/cut, perpetual
      attributes: half, newton on
      pair build: half/bin/newton
      stencil: half/bin/3d/newton
      bin: standard
  (2) fix bond/create/random, occasional, copy from (1)
      attributes: half, newton on
      pair build: copy
      stencil: none
      bin: none
WARNING: Inconsistent image flags (../domain.cpp:784)
Per MPI rank memory allocation (min/avg/max) = 10.48 | 10.74 | 11.41 Mbytes
Step E_pair PotEng KinEng E_bond E_angle Temp Bonds 
300000000   -946.67827    3417.4022    4689.9337    1540.9744     2823.106    314.73806     5225 
301000000   -957.12118    3440.1362    4545.6296    1544.2908    2852.9665    305.05392     5206 
302000000   -989.89096    3417.8033    4749.4202    1544.5797    2863.1146    318.73015     5219 
303000000   -1010.8788    3422.6465    4610.0109    1586.3385    2847.1868     309.3745     5211 
304000000   -993.74125    3363.2579    4622.3929    1534.7322    2822.2669    310.20545     5214 
305000000   -956.63784     3418.484    4607.5874    1535.9078    2839.2141    309.21186     5221 
306000000    -956.0526    3348.2251    4693.8489    1508.3033    2795.9745    315.00081     5218 
307000000   -957.79823     3431.976    4625.6715    1569.9765    2819.7978    310.42547     5220 
308000000   -965.64427    3427.3836    4550.8936    1544.9795    2848.0484    305.40718     5219 
309000000   -994.89014    3315.0594    4646.8832    1508.0846    2801.8649    311.84897     5209 
310000000   -1025.7581    3284.9504    4544.3065    1548.7621    2761.9464    304.96513     5213 
311000000   -1035.3145    3307.4613    4574.2758     1524.594    2818.1818    306.97634     5215 
312000000   -999.85034    3366.3074      4633.87    1516.9873    2849.1704    310.97567     5212 
313000000   -969.49863    3469.1274    4625.3701    1547.6839    2890.9422    310.40524     5213 
314000000   -967.83781    3403.0326    4717.2599    1557.4479    2813.4225     316.5719     5219 
315000000   -978.34267     3376.259    4662.8429    1607.5577     2747.044    312.92002     5217 
316000000   -997.25432    3272.2627    4624.3427    1493.1221    2776.3949    310.33629     5218 
317000000    -1019.374    3319.2711    4652.1272    1517.1074    2821.5378    312.20089     5214 
318000000   -992.16986    3456.2548    4707.0342    1556.4545    2891.9701    315.88566     5220 
319000000   -979.45506    3318.3243    4575.1873    1510.3782    2787.4011    307.03751     5218 
320000000    -995.5332    3375.4952    4626.3519    1556.1267    2814.9017    310.47113     5213 
321000000   -1008.8304    3435.5113    4624.3567    1584.7656     2859.576    310.33724     5213 
322000000   -930.94156    3466.0158    4593.8902    1542.7267    2854.2306    308.29265     5216 
323000000   -963.38655    3329.4205    4631.2353     1497.006     2795.801    310.79886     5215 
324000000   -1004.9937    3377.0835    4586.1411    1543.7473    2838.3299    307.77262     5216 
325000000   -1004.2965    3402.5824    4503.0713     1553.803    2853.0759    302.19786     5213 
326000000   -1007.3146    3322.3477     4590.335    1512.5645    2817.0977    308.05406     5219 
327000000   -994.06259     3332.709     4644.187    1525.6664    2801.1052    311.66803     5222 
328000000   -1003.2707    3399.3137    4625.6425    1555.7843    2846.8002    310.42352     5215 
329000000   -971.66074    3398.8832      4617.71     1526.762    2843.7819    309.89118     5221 
330000000   -970.27446     3382.589    4517.6711     1556.706    2796.1575    303.17764     5212 
331000000   -940.37388    3379.8151    4590.4553    1569.6739    2750.5151    308.06214     5208 
332000000   -960.42319    3311.6657    4657.0502    1503.9224    2768.1665    312.53127     5212 
333000000   -965.22017    3389.8523    4530.8475    1540.5966    2814.4759     304.0619     5214 
334000000   -995.04122    3351.9458    4576.5888    1549.0808    2797.9062    307.13157     5205 
335000000   -965.65066    3275.8311    4622.7131    1458.6715    2782.8103    310.22694     5211 
336000000   -990.08169    3405.2462     4601.206    1563.7924    2831.5355    308.78361     5220 
337000000   -1000.5246    3275.1769    4601.6791    1524.4859    2751.2156    308.81536     5221 
338000000     -1001.36     3386.053    4614.5604    1535.6825    2851.7305    309.67981     5221 
339000000   -984.65266    3353.8053    4626.9673     1541.317    2797.1409    310.51243     5213 
340000000   -995.35483    3341.3132    4663.5414    1540.0183    2796.6497    312.96689     5206 
341000000   -1006.0329    3360.5449    4601.2297    1555.1438     2811.434     308.7852     5213 
342000000   -976.18981    3444.8262    4648.0511    1566.9165    2854.0995    311.92735     5212 
343000000   -991.12326    3359.3775    4576.6821    1504.1176    2846.3831    307.13783     5203 
344000000   -984.36709     3317.672    4663.8011    1522.8351    2779.2039    312.98432     5226 
345000000   -959.39937    3397.8024    4601.0407    1540.0244    2817.1774    308.77251     5214 
346000000   -954.80485    3443.5683    4648.3535    1549.3808    2848.9924    311.94764     5217 
347000000   -1004.2647    3287.4319    4637.4297    1476.4129    2815.2838    311.21455     5221 
348000000   -1016.9796    3315.9062    4595.8348     1536.875    2796.0108    308.42315     5213 
349000000   -1002.7883    3417.2275    4584.5816    1554.3136    2865.7021    307.66796     5214 
350000000   -1000.4909    3420.7912    4507.7002    1549.3996    2871.8825     302.5085     5218 
351000000   -970.66454    3343.6284    4633.8895    1494.5808    2819.7121    310.97698     5218 
352000000   -955.97316    3399.1447    4626.0091    1550.5033    2804.6145    310.44813     5205 
353000000   -984.61027    3436.0931     4698.393    1541.9728    2878.7306    315.30576     5202 
354000000   -999.16044    3303.9854    4649.1845    1449.1224    2854.0235    312.00341     5212 
355000000   -981.59471     3426.796    4555.0763    1592.1146    2816.2761    305.68788     5214 
356000000   -986.02862    3307.1815    4564.1983    1486.4788    2806.7313    306.30005     5214 
357000000   -1043.6565    3235.1803    4635.2066    1501.1524    2777.6844    311.06536     5208 
358000000   -1022.5532    3334.5647    4708.3423    1486.7778    2870.3401    315.97345     5209 
359000000    -1042.366    3356.8527    4617.3425    1572.3959    2826.8229    309.86652     5220 
360000000   -1057.1676    3258.3791    4621.3823    1558.1288    2757.4178    310.13762     5222 
361000000   -984.87171    3414.7573    4620.5962    1562.1203    2837.5087    310.08487     5212 
362000000   -1020.0784    3309.8732    4578.4244     1484.892    2845.0595    307.25475     5208 
363000000   -1039.3306    3308.9487    4678.9298    1564.6251    2783.6542     313.9996     5215 
364000000   -985.91462    3264.8782     4646.973    1483.8236    2766.9692      311.855     5201 
365000000   -995.07101     3413.419    4629.9848    1605.4272    2803.0629    310.71493     5214 
366000000   -1004.7031    3310.6023    4566.0084    1497.6323    2817.6731    306.42153     5213 
367000000   -960.33183    3331.4815    4621.4943    1509.9087    2781.9046    310.14514     5211 
368000000   -951.63903    3362.1188    4527.0883    1506.2693    2807.4885    303.80962     5207 
369000000   -993.53179     3344.782    4586.7189    1522.8939    2815.4198    307.81139     5208 
370000000   -997.15345    3315.3302     4555.173    1518.7137      2793.77    305.69437     5206 
371000000   -985.29803    3324.4553     4602.601     1516.624    2793.1293    308.87723     5223 
372000000   -999.20895    3342.6251    4618.1974    1586.1063    2755.7277    309.92389     5216 
373000000   -991.05559    3402.6932    4589.4897    1547.9017    2845.8471    307.99734     5203 
374000000   -936.38275    3296.0726     4578.768    1499.1662    2733.2892    307.27781     5211 
375000000   -966.26187    3370.0337    4660.3622      1513.74    2822.5556    312.75354     5213 
376000000   -986.09387    3343.1934    4612.7333    1470.8673      2858.42     309.5572     5211 
377000000   -954.05514     3393.678    4651.3947    1528.8481     2818.885    312.15174     5212 
378000000   -945.00529    3438.3846    4664.2308    1545.4587    2837.9312    313.01316     5208 
379000000    -919.4588    3342.2053    4650.0974    1523.8008    2737.8633    312.06468     5210 
380000000   -980.06006    3437.4769    4640.2844     1556.006    2861.5309    311.40613     5203 
381000000   -934.15757     3408.684    4651.2339    1533.5231    2809.3185    312.14095     5207 
382000000    -987.5907    3427.2325     4687.377    1569.0339    2845.7894    314.56648     5214 
383000000   -962.75929    3374.8322    4630.0853     1490.201    2847.3905    310.72168     5207 
384000000   -961.42299    3426.6895    4764.4079    1538.8182    2849.2942    319.73597     5209 
385000000   -967.70933    3361.2369    4579.5791    1504.3366    2824.6096    307.33224     5199 
386000000   -960.89263    3434.9372    4570.2788    1550.6831    2845.1467    306.70811     5210 
387000000   -936.43125    3424.6048    4607.7852     1544.499     2816.537    309.22513     5222 
388000000   -950.19512    3432.5658    4696.1037    1512.0558    2870.7051    315.15213     5212 
389000000   -967.12403     3453.607    4652.4981    1549.8652    2870.8659    312.22578     5212 
390000000    -941.6895    3406.8516    4672.7529    1510.2303    2838.3107    313.58507     5205 
391000000   -959.14688     3439.564    4618.2005    1567.7139    2830.9969     309.9241     5208 
392000000   -983.56789    3362.0483    4662.2905    1525.5595    2820.0567    312.88294     5211 
393000000    -967.9691    3393.6415    4597.1121    1529.5861    2832.0244    308.50887     5210 
394000000   -995.97559    3390.5429    4554.1769    1577.7734    2808.7451    305.62752     5206 
395000000   -942.37094    3345.9713       4673.4    1511.9928    2776.3495     313.6285     5209 
396000000   -990.67237    3306.6161    4602.7298    1504.1292    2793.1593    308.88587     5206 
397000000   -968.61102     3443.827    4585.0902    1564.8107    2847.6273    307.70209     5208 
398000000   -987.79217     3518.168    4681.6922    1629.3729    2876.5872    314.18498     5212 
399000000   -964.63932    3395.5461    4549.2732    1535.5923    2824.5931    305.29844     5197 
400000000   -949.20897    3481.3317    4659.7963    1565.6745    2864.8662    312.71556     5207 
Loop time of 19162.1 on 10 procs for 100000000 steps with 5000 atoms

Performance: 11272.260 ns/day, 0.002 hours/ns, 5218.639 timesteps/s
99.7% CPU use with 10 MPI tasks x no OpenMP threads

MPI task timing breakdown:
Section |  min time  |  avg time  |  max time  |%varavg| %total
---------------------------------------------------------------
Pair    | 4739.7     | 5343.4     | 6036       | 588.5 | 27.89
Bond    | 1568.3     | 1579.9     | 1607.4     |  26.1 |  8.24
Neigh   | 2757.8     | 2773.1     | 2789.8     |  21.9 | 14.47
Comm    | 4582.5     | 5339.2     | 6009.7     | 699.3 | 27.86
Output  | 0.55813    | 0.55818    | 0.55827    |   0.0 |  0.00
Modify  | 3413       | 3449.7     | 3570.3     |  73.6 | 18.00
Other   |            | 676.4      |            |       |  3.53

Nlocal:    500 ave 532 max 480 min
Histogram: 1 3 0 2 1 1 0 1 0 1
Nghost:    544 ave 802 max 430 min
Histogram: 3 2 2 1 0 0 0 0 1 1
Neighs:    5043.7 ave 6175 max 3861 min
Histogram: 1 0 0 4 1 0 1 1 1 1

Total # of neighbors = 50437
Ave neighs/atom = 10.0874
Ave special neighs/atom = 7.132
Neighbor list builds = 5271653
Dangerous builds = 0
write_restart final_state_${fName}.restart
write_restart final_state_Run2_Relax_Es_3kT_Ens_03kT_input.restart
Total wall time: 5:19:22
