
units           real
boundary p p p
atom_style      full

read_restart final_state_Relax_Es_3kT_Ens_03kT.restart
  restoring atom style full from restart
  orthogonal box = (-500 -500 -500) to (500 500 500)
  1 by 2 by 5 MPI processor grid
  restoring pair style lj/cut from restart
  restoring bond style harmonic from restart
  restoring angle style cosine from restart
  5000 atoms
  5225 bonds
  4600 angles
  3 = max # of 1-2 neighbors
  4 = max # of 1-3 neighbors
  8 = max # of 1-4 neighbors
  16 = max # of special neighbors
  special bonds CPU = 0.00335398 secs
  read_restart CPU = 0.0311395 secs

neighbor 1.9 bin
neigh_modify every 1 delay 1 check yes

angle_style  cosine
angle_coeff   *  2  # K (energy unit)

bond_style      harmonic
# bond-type, K (energy/distance^2), R0 (distance)
bond_coeff   1   3   10
bond_coeff   2   3   10
bond_coeff   3   1.8   11.22

pair_style lj/cut 25
# atom-typ1, atom-typ2, energy-well, sigma (bead-diameter), cut-off (distance)
pair_coeff  * * 0.18 10 25

special_bonds lj  1 1 1 angle no

variable t equal step
variable steps equal 100000000
variable dt_thermo equal 1000000
variable dt_movie equal 1000000
variable dt_data equal 10000000

group rxnSites type 1 3
1000 atoms in group rxnSites

# fix ID group-ID(atom-types) bond/create Nevery itype jtype Rmin bondtype (prob values = fraction seed) (iparam maxbond newType)
fix bondc rxnSites bond/create/random 20 1 3 12.72 3 prob 1 ${seed} iparam 1 1 jparam 1 3
fix bondc rxnSites bond/create/random 20 1 3 12.72 3 prob 1 444412 iparam 1 1 jparam 1 3

# fix ID group-ID bond/break Nevery bondtype Rmax keyword values ...
fix bondbr rxnSites bond/break 20 3 12.72 prob 1 ${seed}
fix bondbr rxnSites bond/break 20 3 12.72 prob 1 444412

variable frmbnd equal f_bondc[2]
variable brkbnd equal f_bondbr[2]
fix saveBond all print ${dt_thermo} "$t ${frmbnd} ${brkbnd}" file BondData_${fName}.dat screen no
fix saveBond all print 1000000 "$t ${frmbnd} ${brkbnd}" file BondData_${fName}.dat screen no
fix saveBond all print 1000000 "$t ${frmbnd} ${brkbnd}" file BondData_Run6_Relax_Es_3kT_Ens_03kT_input.dat screen no

thermo_style    custom step epair pe ke ebond eangle temp bonds
thermo          ${dt_thermo}
thermo          1000000
fix saveThermo all print ${dt_thermo} "$t $(temp) $(ke) $(pe) $(epair) $(ebond) $(eangle) $(bonds)" file Thermo_${fName}.dat title "# Steps Temp KinEng PotEng Epair Ebond Eangle Bonds" screen no
fix saveThermo all print 1000000 "$t $(temp) $(ke) $(pe) $(epair) $(ebond) $(eangle) $(bonds)" file Thermo_${fName}.dat title "# Steps Temp KinEng PotEng Epair Ebond Eangle Bonds" screen no
fix saveThermo all print 1000000 "$t $(temp) $(ke) $(pe) $(epair) $(ebond) $(eangle) $(bonds)" file Thermo_Run6_Relax_Es_3kT_Ens_03kT_input.dat title "# Steps Temp KinEng PotEng Epair Ebond Eangle Bonds" screen no

############################ Langevin Dynamics ###############################
fix fxlan all langevin $T $T 500 ${seed}
fix fxlan all langevin 310 $T 500 ${seed}
fix fxlan all langevin 310 310 500 ${seed}
fix fxlan all langevin 310 310 500 444412
fix fxnve all nve

comm_style tiled
fix fxbal all balance 1000 1.1 rcb # load balance for spatially heterogeneous system

timestep 25

restart ${dt_data} ${fName}_tp_*.restart
restart 10000000 ${fName}_tp_*.restart
restart 10000000 Run6_Relax_Es_3kT_Ens_03kT_input_tp_*.restart
dump coor all custom ${dt_movie} traj_${fName}.dump id type mol mass x y z xu yu zu
dump coor all custom 1000000 traj_${fName}.dump id type mol mass x y z xu yu zu
dump coor all custom 1000000 traj_Run6_Relax_Es_3kT_Ens_03kT_input.dump id type mol mass x y z xu yu zu

run ${steps}
run 100000000
Neighbor list info ...
  update every 1 steps, delay 1 steps, check yes
  max neighbors/atom: 2000, page size: 100000
  master list distance cutoff = 26.9
  ghost atom cutoff = 26.9
  binsize = 13.45, bins = 75 75 75
  2 neighbor lists, perpetual/occasional/extra = 1 1 0
  (1) pair lj/cut, perpetual
      attributes: half, newton on
      pair build: half/bin/newton
      stencil: half/bin/3d/newton
      bin: standard
  (2) fix bond/create/random, occasional, copy from (1)
      attributes: half, newton on
      pair build: copy
      stencil: none
      bin: none
WARNING: Inconsistent image flags (../domain.cpp:784)
Per MPI rank memory allocation (min/avg/max) = 10.48 | 10.74 | 11.41 Mbytes
Step E_pair PotEng KinEng E_bond E_angle Temp Bonds 
300000000   -946.67827    3417.4022    4689.9337    1540.9744     2823.106    314.73806     5225 
301000000   -974.18417    3423.8287    4479.1436    1549.3705    2848.6423    300.59209     5216 
302000000   -935.79456    3459.8394    4584.1662    1533.1614    2862.4726    307.64008     5206 
303000000   -977.96826    3453.6835    4621.0066    1552.3657    2879.2861    310.11241     5222 
304000000   -975.75812    3333.3617    4692.3039    1509.2598      2799.86    314.89712     5221 
305000000   -999.47853    3362.0253    4532.2321    1590.3757    2771.1281    304.15482     5225 
306000000   -1038.5987    3305.9287    4629.5856    1497.8373    2846.6901    310.68815     5227 
307000000   -1044.7313    3339.1666     4559.651    1541.1616    2842.7363    305.99488     5215 
308000000   -1007.0987    3327.4001    4656.8502    1527.2582    2807.2406    312.51785     5222 
309000000   -1015.2945    3315.3948    4631.2315    1534.6722    2796.0171     310.7986     5213 
310000000   -1055.2583    3387.8408    4652.2349    1551.1029    2891.9962    312.20812     5219 
311000000   -1049.3823     3238.022    4648.9754    1499.4059    2787.9984    311.98938     5213 
312000000   -1021.0773    3306.6456    4478.6596    1523.6368    2804.0862    300.55961     5212 
313000000   -1050.7157    3282.0764    4592.0338    1544.9034    2787.8888    308.16807     5217 
314000000   -1028.8235    3280.7328    4539.9615    1489.3296    2820.2267    304.67353     5212 
315000000   -1048.1389    3315.2738    4565.7148    1568.3766    2795.0362    306.40182     5215 
316000000   -997.85139     3335.529       4646.6    1488.5709    2844.8095    311.82997     5221 
317000000   -964.87942    3368.7282    4580.2839    1524.2299    2809.3778    307.37955     5225 
318000000   -990.75508    3403.6046    4591.3216    1545.6596    2848.7001    308.12028     5202 
319000000   -993.11332    3318.1194     4686.647    1529.1416    2782.0911    314.51749     5216 
320000000   -973.23712    3407.3515     4604.156    1494.1913    2886.3973    308.98158     5212 
321000000   -1012.6946    3360.0865    4574.6175    1505.4955    2867.2856    306.99927     5203 
322000000   -1050.9061    3323.9591    4714.8255    1552.2282     2822.637    316.40853     5206 
323000000     -1068.48    3221.1317    4536.6015    1506.8307     2782.781    304.44805     5216 
324000000   -1028.7011    3416.5431    4522.6727    1569.8604    2875.3838     303.5133     5215 
325000000   -1022.0786    3302.3512    4613.1191    1516.9763    2807.4535    309.58309     5212 
326000000   -1025.6106    3224.2595    4584.2971    1469.0842    2780.7859    307.64886     5213 
327000000     -1003.21    3410.1576    4621.6489    1585.4673    2827.9003    310.15552     5218 
328000000   -1016.6264    3363.9952    4634.5592    1568.6688    2811.9528    311.02192     5207 
329000000   -1030.7908    3301.4053    4616.9137     1474.093     2858.103    309.83774     5209 
330000000     -1032.63    3290.2184    4620.9071     1519.626    2803.2225    310.10574     5213 
331000000   -988.66097    3483.0521      4651.59    1581.8706    2889.8425    312.16484     5227 
332000000   -965.08704     3394.367    4661.8852    1481.9952    2877.4588    312.85574     5211 
333000000   -948.62527    3376.5018     4683.817    1544.5626    2780.5645    314.32758     5214 
334000000   -966.72481    3389.4976    4549.8056    1531.1073    2825.1151    305.33417     5216 
335000000   -934.81839    3375.7607    4585.9042    1492.6606    2817.9185    307.75672     5215 
336000000   -940.32503    3439.2604     4568.772    1525.0056    2854.5798    306.60699     5202 
337000000   -944.83322    3373.4349    4628.5585     1491.237    2827.0311    310.61922     5210 
338000000   -945.82683    3374.8884    4630.3162    1453.5955    2867.1197    310.73717     5219 
339000000   -942.70253    3421.7372    4635.1953    1532.1228    2832.3169    311.06461     5216 
340000000   -969.17833    3364.9593    4686.3662    1548.8366     2785.301    314.49865     5208 
341000000   -980.22684    3349.6548     4618.466    1534.1961    2795.6856    309.94192     5217 
342000000   -976.89433    3411.8449    4585.0236    1550.1411    2838.5981    307.69762     5212 
343000000   -985.18817    3369.6551    4646.8166     1536.358    2818.4853     311.8445     5207 
344000000   -977.04364    3367.7907     4585.945     1521.124    2823.7104    307.75945     5216 
345000000   -994.40759    3319.2652    4601.7064    1504.0432    2809.6296    308.81719     5215 
346000000   -932.58153    3441.1509    4614.8058    1554.9966    2818.7358    309.69628     5218 
347000000   -978.85078    3370.4118    4551.7611    1548.8401    2800.4225    305.46539     5221 
348000000   -969.75462    3464.0913    4687.7288    1568.3592    2865.4867    314.59009     5211 
349000000   -990.40762    3384.2968    4722.0738    1540.1487    2834.5557    316.89496     5215 
350000000   -968.43284    3383.2894    4686.8254    1536.5811    2815.1411    314.52946     5208 
351000000   -988.27798    3407.4417    4691.6461     1493.702    2902.0177    314.85298     5205 
352000000   -1013.1939    3350.8276    4658.2365    1550.3303    2813.6913    312.61089     5203 
353000000   -1001.9466    3373.0429    4597.6634    1565.1979    2809.7916    308.54587     5206 
354000000   -1034.2363    3282.6903    4611.6977    1506.2221    2810.7045     309.4877     5213 
355000000   -1041.0604    3282.7309    4526.0284    1515.5683    2808.2229     303.7385     5208 
356000000   -1002.2858    3373.5067    4576.5674     1513.195    2862.5975    307.13013     5206 
357000000   -1028.8571    3355.5023    4576.7973    1564.3346    2820.0248    307.14556     5212 
358000000   -969.38692    3352.8471    4561.4704    1540.4127    2781.8213    306.11698     5207 
359000000   -984.08735    3355.9691    4584.1354    1533.2547    2806.8018    307.63802     5213 
360000000   -960.64289    3378.6295    4628.4913     1525.734    2813.5384     310.6147     5202 
361000000   -932.39141    3505.1742    4608.3106    1565.8241    2871.7415    309.26039     5211 
362000000   -939.96204    3381.2911    4669.5659    1483.2149    2838.0382    313.37119     5212 
363000000   -942.01329    3341.3604    4596.5173    1551.3462    2732.0274    308.46895     5204 
364000000   -1008.1008    3450.7668    4605.6792    1580.8824    2877.9851     309.0838     5216 
365000000   -929.31219     3383.334    4623.6144    1534.1289    2778.5173    310.28742     5207 
366000000   -953.25537    3388.0753    4555.4374    1513.9182    2827.4125    305.71211     5214 
367000000   -939.73109    3435.5617    4624.2448    1553.3123    2821.9805    310.32973     5201 
368000000   -948.04379    3460.0809    4637.5268    1561.8138    2846.3108    311.22107     5205 
369000000   -913.84247    3436.3972    4687.4127    1541.4994    2808.7403    314.56888     5210 
370000000   -990.95548     3360.434    4553.5409    1513.5493    2837.8402    305.58484     5216 
371000000     -950.836    3361.0974    4644.9687    1476.6819    2835.2515    311.72049     5213 
372000000   -938.08144    3484.9407    4611.3822     1559.858    2863.1642    309.46653     5206 
373000000   -944.73947    3426.1257    4612.5603    1558.3805    2812.4847    309.54559     5204 
374000000   -882.66539     3485.125    4496.7019    1507.6403    2860.1501    301.77041     5208 
375000000   -924.83877    3540.8187    4672.9851    1562.7319    2902.9255    313.60065     5206 
376000000   -926.70224    3497.9388    4624.0648    1546.8674    2877.7736    310.31764     5215 
377000000   -898.13531    3440.1526    4638.1277    1535.4636    2802.8243     311.2614     5207 
378000000   -915.41527    3371.0782    4599.6601     1498.408    2788.0855    308.67986     5207 
379000000   -916.59372    3464.0711    4659.9086    1518.7723    2861.8925     312.7231     5215 
380000000   -942.89692    3379.5803    4588.2267    1474.0196    2848.4577    307.91258     5213 
381000000   -960.05731    3398.0449    4632.6958    1557.2826    2800.8196    310.89687     5214 
382000000   -953.17176    3353.0358    4633.2096    1495.7138    2810.4938    310.93135     5208 
383000000   -952.75944     3377.983    4686.9911    1557.3319    2773.4105    314.54058     5212 
384000000   -978.38828    3305.6905    4554.1671    1476.0721    2808.0066    305.62686     5210 
385000000   -959.27089    3393.2236    4533.6637    1555.0085     2797.486    304.25089     5201 
386000000    -942.4033    3526.3851    4700.8141    1569.6156    2899.1728    315.46824     5204 
387000000   -959.24402    3430.2067    4696.4162    1545.0045    2844.4462     315.1731     5210 
388000000   -919.92293    3399.5104    4563.0815    1513.7402    2805.6931     306.2251     5215 
389000000   -931.65363    3393.2759    4636.4178    1559.6121    2765.3175    311.14665     5210 
390000000   -958.57084     3389.268    4619.0719    1543.0321    2804.8068    309.98258     5215 
391000000   -914.47604    3497.3633    4574.6721    1510.7941    2901.0453    307.00294     5212 
392000000    -983.6121    3354.7316    4606.8815    1510.4894    2827.8543    309.16449     5214 
393000000   -977.76378    3367.3234    4668.6577    1499.2208    2845.8663    313.31025     5210 
394000000   -933.98618    3447.9322    4524.9507    1513.5178    2868.4005    303.66617     5220 
395000000   -984.46212    3427.9729    4702.5059    1567.0683    2845.3668    315.58177     5224 
396000000   -932.57258    3407.4686    4601.5268    1550.8995    2789.1417    308.80514     5214 
397000000    -970.0726    3405.3857    4670.0951    1521.8766    2853.5817    313.40671     5219 
398000000   -954.91487    3367.8603    4574.9087     1523.391    2799.3842    307.01882     5207 
399000000   -942.50369    3376.1933    4635.6542    1492.9111    2825.7859     311.0954     5215 
400000000   -950.62322     3397.157    4654.8559     1535.108    2812.6722    312.38402     5213 
Loop time of 18936.2 on 10 procs for 100000000 steps with 5000 atoms

Performance: 11406.733 ns/day, 0.002 hours/ns, 5280.895 timesteps/s
99.7% CPU use with 10 MPI tasks x no OpenMP threads

MPI task timing breakdown:
Section |  min time  |  avg time  |  max time  |%varavg| %total
---------------------------------------------------------------
Pair    | 4933.8     | 5291.4     | 5833.6     | 421.1 | 27.94
Bond    | 1565.4     | 1573.9     | 1583.2     |  15.8 |  8.31
Neigh   | 2715.9     | 2728.6     | 2744.9     |  19.2 | 14.41
Comm    | 4620.8     | 5245.9     | 5746.2     | 536.8 | 27.70
Output  | 0.51285    | 0.51297    | 0.51308    |   0.0 |  0.00
Modify  | 3398.9     | 3436.1     | 3518       |  50.8 | 18.15
Other   |            | 659.7      |            |       |  3.48

Nlocal:    500 ave 536 max 448 min
Histogram: 1 1 0 0 1 2 0 2 2 1
Nghost:    505.1 ave 789 max 377 min
Histogram: 1 4 2 1 0 0 1 0 0 1
Neighs:    4954.3 ave 6226 max 3683 min
Histogram: 1 0 2 2 0 2 0 1 1 1

Total # of neighbors = 49543
Ave neighs/atom = 9.9086
Ave special neighs/atom = 7.1544
Neighbor list builds = 5272043
Dangerous builds = 0
write_restart final_state_${fName}.restart
write_restart final_state_Run6_Relax_Es_3kT_Ens_03kT_input.restart
Total wall time: 5:15:36
