
units           real
boundary p p p
atom_style      full

read_restart final_state_Relax_Es_3kT_Ens_03kT.restart
  restoring atom style full from restart
  orthogonal box = (-500 -500 -500) to (500 500 500)
  1 by 2 by 5 MPI processor grid
  restoring pair style lj/cut from restart
  restoring bond style harmonic from restart
  restoring angle style cosine from restart
  5000 atoms
  5225 bonds
  4600 angles
  3 = max # of 1-2 neighbors
  4 = max # of 1-3 neighbors
  8 = max # of 1-4 neighbors
  16 = max # of special neighbors
  special bonds CPU = 0.000906811 secs
  read_restart CPU = 0.076493 secs

neighbor 1.9 bin
neigh_modify every 1 delay 1 check yes

angle_style  cosine
angle_coeff   *  2  # K (energy unit)

bond_style      harmonic
# bond-type, K (energy/distance^2), R0 (distance)
bond_coeff   1   3   10
bond_coeff   2   3   10
bond_coeff   3   1.8   11.22

pair_style lj/cut 25
# atom-typ1, atom-typ2, energy-well, sigma (bead-diameter), cut-off (distance)
pair_coeff  * * 0.18 10 25

special_bonds lj  1 1 1 angle no

variable t equal step
variable steps equal 100000000
variable dt_thermo equal 1000000
variable dt_movie equal 1000000
variable dt_data equal 10000000

group rxnSites type 1 3
1000 atoms in group rxnSites

# fix ID group-ID(atom-types) bond/create Nevery itype jtype Rmin bondtype (prob values = fraction seed) (iparam maxbond newType)
fix bondc rxnSites bond/create/random 20 1 3 12.72 3 prob 1 ${seed} iparam 1 1 jparam 1 3
fix bondc rxnSites bond/create/random 20 1 3 12.72 3 prob 1 113095 iparam 1 1 jparam 1 3

# fix ID group-ID bond/break Nevery bondtype Rmax keyword values ...
fix bondbr rxnSites bond/break 20 3 12.72 prob 1 ${seed}
fix bondbr rxnSites bond/break 20 3 12.72 prob 1 113095

variable frmbnd equal f_bondc[2]
variable brkbnd equal f_bondbr[2]
fix saveBond all print ${dt_thermo} "$t ${frmbnd} ${brkbnd}" file BondData_${fName}.dat screen no
fix saveBond all print 1000000 "$t ${frmbnd} ${brkbnd}" file BondData_${fName}.dat screen no
fix saveBond all print 1000000 "$t ${frmbnd} ${brkbnd}" file BondData_Run8_Relax_Es_3kT_Ens_03kT_input.dat screen no

thermo_style    custom step epair pe ke ebond eangle temp bonds
thermo          ${dt_thermo}
thermo          1000000
fix saveThermo all print ${dt_thermo} "$t $(temp) $(ke) $(pe) $(epair) $(ebond) $(eangle) $(bonds)" file Thermo_${fName}.dat title "# Steps Temp KinEng PotEng Epair Ebond Eangle Bonds" screen no
fix saveThermo all print 1000000 "$t $(temp) $(ke) $(pe) $(epair) $(ebond) $(eangle) $(bonds)" file Thermo_${fName}.dat title "# Steps Temp KinEng PotEng Epair Ebond Eangle Bonds" screen no
fix saveThermo all print 1000000 "$t $(temp) $(ke) $(pe) $(epair) $(ebond) $(eangle) $(bonds)" file Thermo_Run8_Relax_Es_3kT_Ens_03kT_input.dat title "# Steps Temp KinEng PotEng Epair Ebond Eangle Bonds" screen no

############################ Langevin Dynamics ###############################
fix fxlan all langevin $T $T 500 ${seed}
fix fxlan all langevin 310 $T 500 ${seed}
fix fxlan all langevin 310 310 500 ${seed}
fix fxlan all langevin 310 310 500 113095
fix fxnve all nve

comm_style tiled
fix fxbal all balance 1000 1.1 rcb # load balance for spatially heterogeneous system

timestep 25

restart ${dt_data} ${fName}_tp_*.restart
restart 10000000 ${fName}_tp_*.restart
restart 10000000 Run8_Relax_Es_3kT_Ens_03kT_input_tp_*.restart
dump coor all custom ${dt_movie} traj_${fName}.dump id type mol mass x y z xu yu zu
dump coor all custom 1000000 traj_${fName}.dump id type mol mass x y z xu yu zu
dump coor all custom 1000000 traj_Run8_Relax_Es_3kT_Ens_03kT_input.dump id type mol mass x y z xu yu zu

run ${steps}
run 100000000
Neighbor list info ...
  update every 1 steps, delay 1 steps, check yes
  max neighbors/atom: 2000, page size: 100000
  master list distance cutoff = 26.9
  ghost atom cutoff = 26.9
  binsize = 13.45, bins = 75 75 75
  2 neighbor lists, perpetual/occasional/extra = 1 1 0
  (1) pair lj/cut, perpetual
      attributes: half, newton on
      pair build: half/bin/newton
      stencil: half/bin/3d/newton
      bin: standard
  (2) fix bond/create/random, occasional, copy from (1)
      attributes: half, newton on
      pair build: copy
      stencil: none
      bin: none
WARNING: Inconsistent image flags (../domain.cpp:784)
Per MPI rank memory allocation (min/avg/max) = 10.48 | 10.74 | 11.41 Mbytes
Step E_pair PotEng KinEng E_bond E_angle Temp Bonds 
300000000   -946.67827    3417.4022    4689.9337    1540.9744     2823.106    314.73806     5225 
301000000   -939.06398    3378.2974    4671.2177    1544.1679    2773.1935    313.48204     5210 
302000000   -970.08901    3401.3265    4619.4295    1523.7067    2847.7089    310.00657     5219 
303000000   -946.27169    3450.5409    4543.5065    1553.4284    2843.3842    304.91143     5209 
304000000   -932.62686    3444.1016    4673.4729    1532.8769    2843.8516    313.63339     5223 
305000000   -898.90453     3346.666    4617.3365    1499.4981    2746.0725    309.86612     5210 
306000000   -931.60476    3409.7553    4692.4522    1525.1348    2816.2253    314.90707     5219 
307000000   -895.38221    3455.6531    4619.2166    1527.8208    2823.2145    309.99229     5214 
308000000   -931.20975    3417.5919    4624.3606    1531.9145    2816.8871     310.3375     5215 
309000000     -934.457    3407.1776    4613.4985    1557.5575    2784.0771    309.60855     5219 
310000000   -916.78591    3320.2442    4547.1187    1465.5213    2771.5089    305.15385     5210 
311000000    -923.1627    3443.3928    4595.4889    1543.6208    2822.9347    308.39994     5218 
312000000   -939.87981    3450.7831    4586.6625    1548.3887    2842.2742     307.8076     5218 
313000000   -941.36393    3433.2036    4571.5451    1548.0601    2826.5074    306.79309     5221 
314000000   -941.93966    3408.6683    4617.6557    1527.6661    2822.9419    309.88754     5212 
315000000   -926.22436     3443.412    4630.4632    1545.1043    2824.5321    310.74704     5222 
316000000   -982.80247    3411.6199    4578.8855    1507.9444     2886.478    307.28569     5214 
317000000   -933.62146    3402.1299     4619.676    1558.9629    2776.7884    310.02312     5207 
318000000   -899.79326    3492.4838    4567.2161    1541.6617    2850.6154    306.50257     5209 
319000000   -927.32054    3431.6743    4614.5196    1519.8352    2839.1596    309.67708     5213 
320000000   -962.90765    3411.8228    4636.0451    1541.5779    2833.1525    311.12164     5220 
321000000   -950.74053    3365.4739     4634.355    1531.7927    2784.4217    311.00821     5219 
322000000   -972.02737    3471.8314    4587.5814    1560.1798    2883.6789    307.86927     5215 
323000000   -953.73802     3343.638    4632.6519    1539.5831    2757.7929    310.89392     5206 
324000000   -927.41033    3469.1713    4603.7162    1535.8443    2860.7373    308.95206     5208 
325000000   -935.66287    3427.8642    4650.5724    1567.3957    2796.1314    312.09655     5201 
326000000   -969.06999    3467.5946    4594.0075    1552.8129    2883.8517    308.30052     5211 
327000000   -958.57407    3390.2137    4649.5873    1495.5439    2853.2439    312.03044     5209 
328000000   -916.83611    3398.8136    4646.4368    1506.9914    2808.6583    311.81901     5210 
329000000   -937.49931    3416.4368    4622.1305    1512.6387    2841.2974    310.18784     5204 
330000000    -938.8478    3481.5936    4559.2207    1548.0178    2872.4237    305.96601     5201 
331000000   -924.18971    3370.0749    4579.5031    1480.7307    2813.5339    307.32714     5205 
332000000   -945.89618    3349.8635    4665.6987    1536.9078    2758.8519    313.11166     5209 
333000000   -944.74197    3393.5222    4634.8948    1519.9406    2818.3236    311.04444     5213 
334000000   -912.78422    3378.2919    4593.7878     1535.363     2755.713    308.28578     5208 
335000000   -957.74331    3404.2358     4669.025    1516.3329    2845.6462    313.33489     5211 
336000000   -964.09611     3462.428    4658.1319    1574.0949    2852.4292    312.60387     5211 
337000000   -977.71562    3414.3748     4590.344    1553.6197    2838.4707    308.05467     5211 
338000000   -966.75354    3366.5167    4662.4908    1531.5092     2801.761    312.89638     5217 
339000000   -951.83865     3322.717    4628.7316    1506.6605    2767.8952    310.63083     5206 
340000000   -958.49682    3456.1792    4581.0786     1564.642    2850.0341    307.43288     5209 
341000000   -995.95423    3291.0303     4555.973     1492.112    2794.8726    305.74805     5211 
342000000   -1011.1026    3332.2336    4631.4122    1556.8653    2786.4709    310.81073     5207 
343000000   -954.68231    3391.8725    4624.3335    1544.9936    2801.5612    310.33568     5212 
344000000   -927.38124    3451.3101    4654.6297    1528.3764    2850.3149    312.36883     5213 
345000000   -968.62959    3358.7576    4702.5043    1482.0423    2845.3449    315.58167     5214 
346000000   -920.35251    3515.0129    4644.0332    1594.7727    2840.5927    311.65771     5214 
347000000    -957.2196    3340.7726    4617.1527    1518.5993    2779.3929    309.85378     5221 
348000000   -973.73363    3477.5765    4585.1202    1556.8701      2894.44    307.70411     5205 
349000000   -949.78098    3384.1856     4573.979    1496.3882    2837.5784    306.95643     5210 
350000000   -939.27193    3386.5485    4633.5699    1538.3057    2787.5147    310.95553     5229 
351000000    -954.4482    3399.5322    4538.4452    1562.2325    2791.7478    304.57177     5214 
352000000   -921.37424    3386.4839    4625.4584    1522.2628    2785.5953    310.41117     5215 
353000000    -904.3289      3353.97    4550.2538    1484.1936    2774.1053    305.36424     5205 
354000000   -953.56477    3423.3077    4570.3426    1535.7348    2841.1377    306.71239     5210 
355000000   -920.34711    3440.7911    4626.0188    1557.7756    2803.3626    310.44878     5201 
356000000   -925.81072    3477.0448    4721.2054    1560.4397    2842.4158    316.83668     5207 
357000000   -921.62032    3461.1226    4533.5791    1531.3099     2851.433    304.24521     5212 
358000000   -915.16292    3444.2002    4601.6796    1495.4045    2863.9586    308.81539     5204 
359000000    -927.0136    3368.0799    4568.0356    1501.5683    2793.5252    306.55757     5212 
360000000   -913.85445    3450.5116    4501.4324    1527.2968    2837.0692    302.08787     5205 
361000000   -928.84528    3327.2138    4664.0955    1481.3752    2774.6838    313.00408     5207 
362000000   -943.11446    3483.5185    4607.5415    1575.4739    2851.1592    309.20878     5224 
363000000   -927.17947    3477.6556    4686.1296    1555.6096    2849.2255    314.48277     5226 
364000000   -969.48726    3408.9951    4604.6379    1524.3665    2854.1159    309.01392     5216 
365000000   -901.41092    3465.6566    4702.0429    1529.5315    2837.5361     315.5507     5206 
366000000   -938.61031    3503.4326    4640.5712    1579.0759    2862.9671    311.42538     5208 
367000000   -925.51323     3483.013    4648.9979    1554.2852    2854.2411    311.99089     5207 
368000000    -952.5695    3430.2749    4607.7121    1554.6626    2828.1819    309.22023     5216 
369000000   -904.68131    3448.2153    4623.4963    1512.7317     2840.165     310.2795     5218 
370000000   -943.33184    3425.9885    4656.7255    1531.1502    2838.1702    312.50948     5222 
371000000   -905.43072    3500.6985    4497.3819    1563.0627    2843.0665    301.81605     5214 
372000000   -931.82451    3529.1694    4675.3532    1565.7738    2895.2202    313.75958     5206 
373000000   -961.01111    3349.0266    4629.7984    1468.1211    2841.9166    310.70243     5213 
374000000   -971.97305    3484.4149    4625.3165    1570.1576    2886.2303    310.40164     5225 
375000000   -1009.9395    3358.0944    4653.7813    1546.8413    2821.1926     312.3119     5215 
376000000   -986.63164     3341.732      4641.35    1514.8318    2813.5318    311.47765     5218 
377000000   -1002.8297    3399.0607    4615.7088    1563.2474     2838.643    309.75688     5205 
378000000   -971.93423    3427.4847    4618.3565    1548.2947    2851.1243    309.93457     5205 
379000000   -928.99198    3499.2523    4625.4147    1589.0589    2839.1854    310.40824     5210 
380000000   -950.45666    3322.0404      4620.15    1476.9061     2795.591    310.05493     5209 
381000000   -963.84937    3379.9469    4674.1706     1535.098    2808.6983    313.68021     5208 
382000000   -974.36883    3468.2883    4658.8217    1556.3848    2886.2723    312.65016     5216 
383000000   -952.03644    3433.9629     4665.274    1569.8571    2816.1423    313.08316     5220 
384000000   -1020.7618    3326.7365    4608.4239    1515.1835    2832.3147      309.268     5213 
385000000   -981.61055    3407.6973    4569.4595    1546.0776    2843.2303    306.65312     5216 
386000000   -971.27135    3307.0738    4612.8308     1513.219    2765.1262    309.56374     5215 
387000000   -958.70412    3406.6472    4552.9956    1536.8102    2828.5411    305.54824     5206 
388000000   -1004.2352    3298.9442    4641.9145    1500.7979    2802.3814    311.51553     5208 
389000000   -975.28672    3402.9766    4600.2093    1538.5726    2839.6906    308.71672     5211 
390000000   -989.22568    3369.3089    4697.7639    1536.5145    2822.0201    315.26354     5222 
391000000   -1007.5989     3395.651    4662.2593    1556.4004    2846.8495    312.88085     5215 
392000000   -1033.5608    3313.8302     4533.123    1580.5109    2766.8801    304.21461     5217 
393000000   -1016.9112    3310.3989    4537.5844    1548.3966    2778.9135    304.51401     5221 
394000000   -1018.1897    3357.7998    4647.4047    1540.5731    2835.4163    311.88397     5220 
395000000   -961.66904    3304.9403    4647.9703    1510.0062    2756.6031    311.92193     5211 
396000000   -1041.2127    3260.3468    4672.5055    1500.9055     2800.654    313.56847     5214 
397000000   -1006.2329    3334.3823    4586.5337    1557.1458    2783.4694    307.79896     5213 
398000000   -995.60078    3343.1342    4554.3549    1576.5636    2762.1714    305.63947     5225 
399000000   -1005.1672    3375.9645    4693.3931    1548.2895    2832.8423    314.97022     5217 
400000000    -1011.613    3444.4283    4594.7151    1586.7713      2869.27    308.34801     5214 
Loop time of 19342 on 10 procs for 100000000 steps with 5000 atoms

Performance: 11167.422 ns/day, 0.002 hours/ns, 5170.103 timesteps/s
99.6% CPU use with 10 MPI tasks x no OpenMP threads

MPI task timing breakdown:
Section |  min time  |  avg time  |  max time  |%varavg| %total
---------------------------------------------------------------
Pair    | 4353.1     | 5186       | 6164.2     | 748.8 | 26.81
Bond    | 1564.9     | 1575.6     | 1592.9     |  23.4 |  8.15
Neigh   | 2764       | 2785.2     | 2806.4     |  24.4 | 14.40
Comm    | 4628.7     | 5624.3     | 6657.8     | 802.9 | 29.08
Output  | 0.55528    | 0.55533    | 0.55542    |   0.0 |  0.00
Modify  | 3450.8     | 3473.2     | 3503.1     |  23.2 | 17.96
Other   |            | 697.1      |            |       |  3.60

Nlocal:    500 ave 514 max 486 min
Histogram: 1 1 1 1 2 0 1 1 0 2
Nghost:    528.6 ave 777 max 383 min
Histogram: 1 1 4 1 1 0 0 1 0 1
Neighs:    5280.6 ave 6235 max 3989 min
Histogram: 2 1 0 0 0 1 1 1 2 2

Total # of neighbors = 52806
Ave neighs/atom = 10.5612
Ave special neighs/atom = 7.172
Neighbor list builds = 5273020
Dangerous builds = 0
write_restart final_state_${fName}.restart
write_restart final_state_Run8_Relax_Es_3kT_Ens_03kT_input.restart
Total wall time: 5:22:22
